32
Lattice="0.0 8.099999999999998 8.099999999999998 8.099999999999998 0.0 8.099999999999998 4.049999999999999 4.049999999999999 0.0" Properties=species:S:1:pos:R:3:masses:R:1:v_ase_atom_type:S:1 v_ase_phonon_mode="_JSON {\"qpoint\": [0.5, 0.0, 0.0], \"band\": 3, \"frequency_thz\": 7.918781883704656, \"amplitude\": 2.0, \"phase_degrees\": 0.0, \"dimension\": [[4, 0, 0], [0, 4, 0], [0, 0, 2]], \"coordinates_unwrapped\": true}" pbc="T T T"
Al       0.03929715      -0.03929715      -0.03929715      26.98153850 Al_fcc
Al      -0.03929715       2.06429715       2.06429715      26.98153850 Al_fcc
Al       0.03929715       4.01070285       4.01070285      26.98153850 Al_fcc
Al      -0.03929715       6.11429715       6.11429715      26.98153850 Al_fcc
Al       2.06429715      -0.03929715       1.98570285      26.98153850 Al_fcc
Al       1.98570285       2.06429715       4.08929715      26.98153850 Al_fcc
Al       2.06429715       4.01070285       6.03570285      26.98153850 Al_fcc
Al       1.98570285       6.11429715       8.13929715      26.98153850 Al_fcc
Al       4.08929715      -0.03929715       4.01070285      26.98153850 Al_fcc
Al       4.01070285       2.06429715       6.11429715      26.98153850 Al_fcc
Al       4.08929715       4.01070285       8.06070285      26.98153850 Al_fcc
Al       4.01070285       6.11429715      10.16429715      26.98153850 Al_fcc
Al       6.11429715      -0.03929715       6.03570285      26.98153850 Al_fcc
Al       6.03570285       2.06429715       8.13929715      26.98153850 Al_fcc
Al       6.11429715       4.01070285      10.08570285      26.98153850 Al_fcc
Al       6.03570285       6.11429715      12.18929715      26.98153850 Al_fcc
Al       2.06429715       1.98570285      -0.03929715      26.98153850 Al_fcc
Al       1.98570285       4.08929715       2.06429715      26.98153850 Al_fcc
Al       2.06429715       6.03570285       4.01070285      26.98153850 Al_fcc
Al       1.98570285       8.13929715       6.11429715      26.98153850 Al_fcc
Al       4.08929715       1.98570285       1.98570285      26.98153850 Al_fcc
Al       4.01070285       4.08929715       4.08929715      26.98153850 Al_fcc
Al       4.08929715       6.03570285       6.03570285      26.98153850 Al_fcc
Al       4.01070285       8.13929715       8.13929715      26.98153850 Al_fcc
Al       6.11429715       1.98570285       4.01070285      26.98153850 Al_fcc
Al       6.03570285       4.08929715       6.11429715      26.98153850 Al_fcc
Al       6.11429715       6.03570285       8.06070285      26.98153850 Al_fcc
Al       6.03570285       8.13929715      10.16429715      26.98153850 Al_fcc
Al       8.13929715       1.98570285       6.03570285      26.98153850 Al_fcc
Al       8.06070285       4.08929715       8.13929715      26.98153850 Al_fcc
Al       8.13929715       6.03570285      10.08570285      26.98153850 Al_fcc
Al       8.06070285       8.13929715      12.18929715      26.98153850 Al_fcc
32
Lattice="0.0 8.099999999999998 8.099999999999998 8.099999999999998 0.0 8.099999999999998 4.049999999999999 4.049999999999999 0.0" Properties=species:S:1:pos:R:3:masses:R:1:v_ase_atom_type:S:1 v_ase_phonon_mode="_JSON {\"qpoint\": [0.5, 0.0, 0.0], \"band\": 3, \"frequency_thz\": 7.918781883704656, \"amplitude\": 2.0, \"phase_degrees\": 15.0, \"dimension\": [[4, 0, 0], [0, 4, 0], [0, 0, 2]], \"coordinates_unwrapped\": true}" pbc="T T T"
Al       0.03795813      -0.03795813      -0.03795813      26.98153850 Al_fcc
Al      -0.03795813       2.06295813       2.06295813      26.98153850 Al_fcc
Al       0.03795813       4.01204187       4.01204187      26.98153850 Al_fcc
Al      -0.03795813       6.11295813       6.11295813      26.98153850 Al_fcc
Al       2.06295813      -0.03795813       1.98704187      26.98153850 Al_fcc
Al       1.98704187       2.06295813       4.08795813      26.98153850 Al_fcc
Al       2.06295813       4.01204187       6.03704187      26.98153850 Al_fcc
Al       1.98704187       6.11295813       8.13795813      26.98153850 Al_fcc
Al       4.08795813      -0.03795813       4.01204187      26.98153850 Al_fcc
Al       4.01204187       2.06295813       6.11295813      26.98153850 Al_fcc
Al       4.08795813       4.01204187       8.06204187      26.98153850 Al_fcc
Al       4.01204187       6.11295813      10.16295813      26.98153850 Al_fcc
Al       6.11295813      -0.03795813       6.03704187      26.98153850 Al_fcc
Al       6.03704187       2.06295813       8.13795813      26.98153850 Al_fcc
Al       6.11295813       4.01204187      10.08704187      26.98153850 Al_fcc
Al       6.03704187       6.11295813      12.18795813      26.98153850 Al_fcc
Al       2.06295813       1.98704187      -0.03795813      26.98153850 Al_fcc
Al       1.98704187       4.08795813       2.06295813      26.98153850 Al_fcc
Al       2.06295813       6.03704187       4.01204187      26.98153850 Al_fcc
Al       1.98704187       8.13795813       6.11295813      26.98153850 Al_fcc
Al       4.08795813       1.98704187       1.98704187      26.98153850 Al_fcc
Al       4.01204187       4.08795813       4.08795813      26.98153850 Al_fcc
Al       4.08795813       6.03704187       6.03704187      26.98153850 Al_fcc
Al       4.01204187       8.13795813       8.13795813      26.98153850 Al_fcc
Al       6.11295813       1.98704187       4.01204187      26.98153850 Al_fcc
Al       6.03704187       4.08795813       6.11295813      26.98153850 Al_fcc
Al       6.11295813       6.03704187       8.06204187      26.98153850 Al_fcc
Al       6.03704187       8.13795813      10.16295813      26.98153850 Al_fcc
Al       8.13795813       1.98704187       6.03704187      26.98153850 Al_fcc
Al       8.06204187       4.08795813       8.13795813      26.98153850 Al_fcc
Al       8.13795813       6.03704187      10.08704187      26.98153850 Al_fcc
Al       8.06204187       8.13795813      12.18795813      26.98153850 Al_fcc
32
Lattice="0.0 8.099999999999998 8.099999999999998 8.099999999999998 0.0 8.099999999999998 4.049999999999999 4.049999999999999 0.0" Properties=species:S:1:pos:R:3:masses:R:1:v_ase_atom_type:S:1 v_ase_phonon_mode="_JSON {\"qpoint\": [0.5, 0.0, 0.0], \"band\": 3, \"frequency_thz\": 7.918781883704656, \"amplitude\": 2.0, \"phase_degrees\": 30.0, \"dimension\": [[4, 0, 0], [0, 4, 0], [0, 0, 2]], \"coordinates_unwrapped\": true}" pbc="T T T"
Al       0.03403233      -0.03403233      -0.03403233      26.98153850 Al_fcc
Al      -0.03403233       2.05903233       2.05903233      26.98153850 Al_fcc
Al       0.03403233       4.01596767       4.01596767      26.98153850 Al_fcc
Al      -0.03403233       6.10903233       6.10903233      26.98153850 Al_fcc
Al       2.05903233      -0.03403233       1.99096767      26.98153850 Al_fcc
Al       1.99096767       2.05903233       4.08403233      26.98153850 Al_fcc
Al       2.05903233       4.01596767       6.04096767      26.98153850 Al_fcc
Al       1.99096767       6.10903233       8.13403233      26.98153850 Al_fcc
Al       4.08403233      -0.03403233       4.01596767      26.98153850 Al_fcc
Al       4.01596767       2.05903233       6.10903233      26.98153850 Al_fcc
Al       4.08403233       4.01596767       8.06596767      26.98153850 Al_fcc
Al       4.01596767       6.10903233      10.15903233      26.98153850 Al_fcc
Al       6.10903233      -0.03403233       6.04096767      26.98153850 Al_fcc
Al       6.04096767       2.05903233       8.13403233      26.98153850 Al_fcc
Al       6.10903233       4.01596767      10.09096767      26.98153850 Al_fcc
Al       6.04096767       6.10903233      12.18403233      26.98153850 Al_fcc
Al       2.05903233       1.99096767      -0.03403233      26.98153850 Al_fcc
Al       1.99096767       4.08403233       2.05903233      26.98153850 Al_fcc
Al       2.05903233       6.04096767       4.01596767      26.98153850 Al_fcc
Al       1.99096767       8.13403233       6.10903233      26.98153850 Al_fcc
Al       4.08403233       1.99096767       1.99096767      26.98153850 Al_fcc
Al       4.01596767       4.08403233       4.08403233      26.98153850 Al_fcc
Al       4.08403233       6.04096767       6.04096767      26.98153850 Al_fcc
Al       4.01596767       8.13403233       8.13403233      26.98153850 Al_fcc
Al       6.10903233       1.99096767       4.01596767      26.98153850 Al_fcc
Al       6.04096767       4.08403233       6.10903233      26.98153850 Al_fcc
Al       6.10903233       6.04096767       8.06596767      26.98153850 Al_fcc
Al       6.04096767       8.13403233      10.15903233      26.98153850 Al_fcc
Al       8.13403233       1.99096767       6.04096767      26.98153850 Al_fcc
Al       8.06596767       4.08403233       8.13403233      26.98153850 Al_fcc
Al       8.13403233       6.04096767      10.09096767      26.98153850 Al_fcc
Al       8.06596767       8.13403233      12.18403233      26.98153850 Al_fcc
32
Lattice="0.0 8.099999999999998 8.099999999999998 8.099999999999998 0.0 8.099999999999998 4.049999999999999 4.049999999999999 0.0" Properties=species:S:1:pos:R:3:masses:R:1:v_ase_atom_type:S:1 v_ase_phonon_mode="_JSON {\"qpoint\": [0.5, 0.0, 0.0], \"band\": 3, \"frequency_thz\": 7.918781883704656, \"amplitude\": 2.0, \"phase_degrees\": 45.0, \"dimension\": [[4, 0, 0], [0, 4, 0], [0, 0, 2]], \"coordinates_unwrapped\": true}" pbc="T T T"
Al       0.02778728      -0.02778728      -0.02778728      26.98153850 Al_fcc
Al      -0.02778728       2.05278728       2.05278728      26.98153850 Al_fcc
Al       0.02778728       4.02221272       4.02221272      26.98153850 Al_fcc
Al      -0.02778728       6.10278728       6.10278728      26.98153850 Al_fcc
Al       2.05278728      -0.02778728       1.99721272      26.98153850 Al_fcc
Al       1.99721272       2.05278728       4.07778728      26.98153850 Al_fcc
Al       2.05278728       4.02221272       6.04721272      26.98153850 Al_fcc
Al       1.99721272       6.10278728       8.12778728      26.98153850 Al_fcc
Al       4.07778728      -0.02778728       4.02221272      26.98153850 Al_fcc
Al       4.02221272       2.05278728       6.10278728      26.98153850 Al_fcc
Al       4.07778728       4.02221272       8.07221272      26.98153850 Al_fcc
Al       4.02221272       6.10278728      10.15278728      26.98153850 Al_fcc
Al       6.10278728      -0.02778728       6.04721272      26.98153850 Al_fcc
Al       6.04721272       2.05278728       8.12778728      26.98153850 Al_fcc
Al       6.10278728       4.02221272      10.09721272      26.98153850 Al_fcc
Al       6.04721272       6.10278728      12.17778728      26.98153850 Al_fcc
Al       2.05278728       1.99721272      -0.02778728      26.98153850 Al_fcc
Al       1.99721272       4.07778728       2.05278728      26.98153850 Al_fcc
Al       2.05278728       6.04721272       4.02221272      26.98153850 Al_fcc
Al       1.99721272       8.12778728       6.10278728      26.98153850 Al_fcc
Al       4.07778728       1.99721272       1.99721272      26.98153850 Al_fcc
Al       4.02221272       4.07778728       4.07778728      26.98153850 Al_fcc
Al       4.07778728       6.04721272       6.04721272      26.98153850 Al_fcc
Al       4.02221272       8.12778728       8.12778728      26.98153850 Al_fcc
Al       6.10278728       1.99721272       4.02221272      26.98153850 Al_fcc
Al       6.04721272       4.07778728       6.10278728      26.98153850 Al_fcc
Al       6.10278728       6.04721272       8.07221272      26.98153850 Al_fcc
Al       6.04721272       8.12778728      10.15278728      26.98153850 Al_fcc
Al       8.12778728       1.99721272       6.04721272      26.98153850 Al_fcc
Al       8.07221272       4.07778728       8.12778728      26.98153850 Al_fcc
Al       8.12778728       6.04721272      10.09721272      26.98153850 Al_fcc
Al       8.07221272       8.12778728      12.17778728      26.98153850 Al_fcc
32
Lattice="0.0 8.099999999999998 8.099999999999998 8.099999999999998 0.0 8.099999999999998 4.049999999999999 4.049999999999999 0.0" Properties=species:S:1:pos:R:3:masses:R:1:v_ase_atom_type:S:1 v_ase_phonon_mode="_JSON {\"qpoint\": [0.5, 0.0, 0.0], \"band\": 3, \"frequency_thz\": 7.918781883704656, \"amplitude\": 2.0, \"phase_degrees\": 60.0, \"dimension\": [[4, 0, 0], [0, 4, 0], [0, 0, 2]], \"coordinates_unwrapped\": true}" pbc="T T T"
Al       0.01964857      -0.01964857      -0.01964857      26.98153850 Al_fcc
Al      -0.01964857       2.04464857       2.04464857      26.98153850 Al_fcc
Al       0.01964857       4.03035143       4.03035143      26.98153850 Al_fcc
Al      -0.01964857       6.09464857       6.09464857      26.98153850 Al_fcc
Al       2.04464857      -0.01964857       2.00535143      26.98153850 Al_fcc
Al       2.00535143       2.04464857       4.06964857      26.98153850 Al_fcc
Al       2.04464857       4.03035143       6.05535143      26.98153850 Al_fcc
Al       2.00535143       6.09464857       8.11964857      26.98153850 Al_fcc
Al       4.06964857      -0.01964857       4.03035143      26.98153850 Al_fcc
Al       4.03035143       2.04464857       6.09464857      26.98153850 Al_fcc
Al       4.06964857       4.03035143       8.08035143      26.98153850 Al_fcc
Al       4.03035143       6.09464857      10.14464857      26.98153850 Al_fcc
Al       6.09464857      -0.01964857       6.05535143      26.98153850 Al_fcc
Al       6.05535143       2.04464857       8.11964857      26.98153850 Al_fcc
Al       6.09464857       4.03035143      10.10535143      26.98153850 Al_fcc
Al       6.05535143       6.09464857      12.16964857      26.98153850 Al_fcc
Al       2.04464857       2.00535143      -0.01964857      26.98153850 Al_fcc
Al       2.00535143       4.06964857       2.04464857      26.98153850 Al_fcc
Al       2.04464857       6.05535143       4.03035143      26.98153850 Al_fcc
Al       2.00535143       8.11964857       6.09464857      26.98153850 Al_fcc
Al       4.06964857       2.00535143       2.00535143      26.98153850 Al_fcc
Al       4.03035143       4.06964857       4.06964857      26.98153850 Al_fcc
Al       4.06964857       6.05535143       6.05535143      26.98153850 Al_fcc
Al       4.03035143       8.11964857       8.11964857      26.98153850 Al_fcc
Al       6.09464857       2.00535143       4.03035143      26.98153850 Al_fcc
Al       6.05535143       4.06964857       6.09464857      26.98153850 Al_fcc
Al       6.09464857       6.05535143       8.08035143      26.98153850 Al_fcc
Al       6.05535143       8.11964857      10.14464857      26.98153850 Al_fcc
Al       8.11964857       2.00535143       6.05535143      26.98153850 Al_fcc
Al       8.08035143       4.06964857       8.11964857      26.98153850 Al_fcc
Al       8.11964857       6.05535143      10.10535143      26.98153850 Al_fcc
Al       8.08035143       8.11964857      12.16964857      26.98153850 Al_fcc
32
Lattice="0.0 8.099999999999998 8.099999999999998 8.099999999999998 0.0 8.099999999999998 4.049999999999999 4.049999999999999 0.0" Properties=species:S:1:pos:R:3:masses:R:1:v_ase_atom_type:S:1 v_ase_phonon_mode="_JSON {\"qpoint\": [0.5, 0.0, 0.0], \"band\": 3, \"frequency_thz\": 7.918781883704656, \"amplitude\": 2.0, \"phase_degrees\": 75.0, \"dimension\": [[4, 0, 0], [0, 4, 0], [0, 0, 2]], \"coordinates_unwrapped\": true}" pbc="T T T"
Al       0.01017085      -0.01017085      -0.01017085      26.98153850 Al_fcc
Al      -0.01017085       2.03517085       2.03517085      26.98153850 Al_fcc
Al       0.01017085       4.03982915       4.03982915      26.98153850 Al_fcc
Al      -0.01017085       6.08517085       6.08517085      26.98153850 Al_fcc
Al       2.03517085      -0.01017085       2.01482915      26.98153850 Al_fcc
Al       2.01482915       2.03517085       4.06017085      26.98153850 Al_fcc
Al       2.03517085       4.03982915       6.06482915      26.98153850 Al_fcc
Al       2.01482915       6.08517085       8.11017085      26.98153850 Al_fcc
Al       4.06017085      -0.01017085       4.03982915      26.98153850 Al_fcc
Al       4.03982915       2.03517085       6.08517085      26.98153850 Al_fcc
Al       4.06017085       4.03982915       8.08982915      26.98153850 Al_fcc
Al       4.03982915       6.08517085      10.13517085      26.98153850 Al_fcc
Al       6.08517085      -0.01017085       6.06482915      26.98153850 Al_fcc
Al       6.06482915       2.03517085       8.11017085      26.98153850 Al_fcc
Al       6.08517085       4.03982915      10.11482915      26.98153850 Al_fcc
Al       6.06482915       6.08517085      12.16017085      26.98153850 Al_fcc
Al       2.03517085       2.01482915      -0.01017085      26.98153850 Al_fcc
Al       2.01482915       4.06017085       2.03517085      26.98153850 Al_fcc
Al       2.03517085       6.06482915       4.03982915      26.98153850 Al_fcc
Al       2.01482915       8.11017085       6.08517085      26.98153850 Al_fcc
Al       4.06017085       2.01482915       2.01482915      26.98153850 Al_fcc
Al       4.03982915       4.06017085       4.06017085      26.98153850 Al_fcc
Al       4.06017085       6.06482915       6.06482915      26.98153850 Al_fcc
Al       4.03982915       8.11017085       8.11017085      26.98153850 Al_fcc
Al       6.08517085       2.01482915       4.03982915      26.98153850 Al_fcc
Al       6.06482915       4.06017085       6.08517085      26.98153850 Al_fcc
Al       6.08517085       6.06482915       8.08982915      26.98153850 Al_fcc
Al       6.06482915       8.11017085      10.13517085      26.98153850 Al_fcc
Al       8.11017085       2.01482915       6.06482915      26.98153850 Al_fcc
Al       8.08982915       4.06017085       8.11017085      26.98153850 Al_fcc
Al       8.11017085       6.06482915      10.11482915      26.98153850 Al_fcc
Al       8.08982915       8.11017085      12.16017085      26.98153850 Al_fcc
32
Lattice="0.0 8.099999999999998 8.099999999999998 8.099999999999998 0.0 8.099999999999998 4.049999999999999 4.049999999999999 0.0" Properties=species:S:1:pos:R:3:masses:R:1:v_ase_atom_type:S:1 v_ase_phonon_mode="_JSON {\"qpoint\": [0.5, 0.0, 0.0], \"band\": 3, \"frequency_thz\": 7.918781883704656, \"amplitude\": 2.0, \"phase_degrees\": 90.0, \"dimension\": [[4, 0, 0], [0, 4, 0], [0, 0, 2]], \"coordinates_unwrapped\": true}" pbc="T T T"
Al       0.00000000       0.00000000       0.00000000      26.98153850 Al_fcc
Al       0.00000000       2.02500000       2.02500000      26.98153850 Al_fcc
Al       0.00000000       4.05000000       4.05000000      26.98153850 Al_fcc
Al       0.00000000       6.07500000       6.07500000      26.98153850 Al_fcc
Al       2.02500000       0.00000000       2.02500000      26.98153850 Al_fcc
Al       2.02500000       2.02500000       4.05000000      26.98153850 Al_fcc
Al       2.02500000       4.05000000       6.07500000      26.98153850 Al_fcc
Al       2.02500000       6.07500000       8.10000000      26.98153850 Al_fcc
Al       4.05000000       0.00000000       4.05000000      26.98153850 Al_fcc
Al       4.05000000       2.02500000       6.07500000      26.98153850 Al_fcc
Al       4.05000000       4.05000000       8.10000000      26.98153850 Al_fcc
Al       4.05000000       6.07500000      10.12500000      26.98153850 Al_fcc
Al       6.07500000       0.00000000       6.07500000      26.98153850 Al_fcc
Al       6.07500000       2.02500000       8.10000000      26.98153850 Al_fcc
Al       6.07500000       4.05000000      10.12500000      26.98153850 Al_fcc
Al       6.07500000       6.07500000      12.15000000      26.98153850 Al_fcc
Al       2.02500000       2.02500000       0.00000000      26.98153850 Al_fcc
Al       2.02500000       4.05000000       2.02500000      26.98153850 Al_fcc
Al       2.02500000       6.07500000       4.05000000      26.98153850 Al_fcc
Al       2.02500000       8.10000000       6.07500000      26.98153850 Al_fcc
Al       4.05000000       2.02500000       2.02500000      26.98153850 Al_fcc
Al       4.05000000       4.05000000       4.05000000      26.98153850 Al_fcc
Al       4.05000000       6.07500000       6.07500000      26.98153850 Al_fcc
Al       4.05000000       8.10000000       8.10000000      26.98153850 Al_fcc
Al       6.07500000       2.02500000       4.05000000      26.98153850 Al_fcc
Al       6.07500000       4.05000000       6.07500000      26.98153850 Al_fcc
Al       6.07500000       6.07500000       8.10000000      26.98153850 Al_fcc
Al       6.07500000       8.10000000      10.12500000      26.98153850 Al_fcc
Al       8.10000000       2.02500000       6.07500000      26.98153850 Al_fcc
Al       8.10000000       4.05000000       8.10000000      26.98153850 Al_fcc
Al       8.10000000       6.07500000      10.12500000      26.98153850 Al_fcc
Al       8.10000000       8.10000000      12.15000000      26.98153850 Al_fcc
32
Lattice="0.0 8.099999999999998 8.099999999999998 8.099999999999998 0.0 8.099999999999998 4.049999999999999 4.049999999999999 0.0" Properties=species:S:1:pos:R:3:masses:R:1:v_ase_atom_type:S:1 v_ase_phonon_mode="_JSON {\"qpoint\": [0.5, 0.0, 0.0], \"band\": 3, \"frequency_thz\": 7.918781883704656, \"amplitude\": 2.0, \"phase_degrees\": 105.0, \"dimension\": [[4, 0, 0], [0, 4, 0], [0, 0, 2]], \"coordinates_unwrapped\": true}" pbc="T T T"
Al      -0.01017085       0.01017085       0.01017085      26.98153850 Al_fcc
Al       0.01017085       2.01482915       2.01482915      26.98153850 Al_fcc
Al      -0.01017085       4.06017085       4.06017085      26.98153850 Al_fcc
Al       0.01017085       6.06482915       6.06482915      26.98153850 Al_fcc
Al       2.01482915       0.01017085       2.03517085      26.98153850 Al_fcc
Al       2.03517085       2.01482915       4.03982915      26.98153850 Al_fcc
Al       2.01482915       4.06017085       6.08517085      26.98153850 Al_fcc
Al       2.03517085       6.06482915       8.08982915      26.98153850 Al_fcc
Al       4.03982915       0.01017085       4.06017085      26.98153850 Al_fcc
Al       4.06017085       2.01482915       6.06482915      26.98153850 Al_fcc
Al       4.03982915       4.06017085       8.11017085      26.98153850 Al_fcc
Al       4.06017085       6.06482915      10.11482915      26.98153850 Al_fcc
Al       6.06482915       0.01017085       6.08517085      26.98153850 Al_fcc
Al       6.08517085       2.01482915       8.08982915      26.98153850 Al_fcc
Al       6.06482915       4.06017085      10.13517085      26.98153850 Al_fcc
Al       6.08517085       6.06482915      12.13982915      26.98153850 Al_fcc
Al       2.01482915       2.03517085       0.01017085      26.98153850 Al_fcc
Al       2.03517085       4.03982915       2.01482915      26.98153850 Al_fcc
Al       2.01482915       6.08517085       4.06017085      26.98153850 Al_fcc
Al       2.03517085       8.08982915       6.06482915      26.98153850 Al_fcc
Al       4.03982915       2.03517085       2.03517085      26.98153850 Al_fcc
Al       4.06017085       4.03982915       4.03982915      26.98153850 Al_fcc
Al       4.03982915       6.08517085       6.08517085      26.98153850 Al_fcc
Al       4.06017085       8.08982915       8.08982915      26.98153850 Al_fcc
Al       6.06482915       2.03517085       4.06017085      26.98153850 Al_fcc
Al       6.08517085       4.03982915       6.06482915      26.98153850 Al_fcc
Al       6.06482915       6.08517085       8.11017085      26.98153850 Al_fcc
Al       6.08517085       8.08982915      10.11482915      26.98153850 Al_fcc
Al       8.08982915       2.03517085       6.08517085      26.98153850 Al_fcc
Al       8.11017085       4.03982915       8.08982915      26.98153850 Al_fcc
Al       8.08982915       6.08517085      10.13517085      26.98153850 Al_fcc
Al       8.11017085       8.08982915      12.13982915      26.98153850 Al_fcc
32
Lattice="0.0 8.099999999999998 8.099999999999998 8.099999999999998 0.0 8.099999999999998 4.049999999999999 4.049999999999999 0.0" Properties=species:S:1:pos:R:3:masses:R:1:v_ase_atom_type:S:1 v_ase_phonon_mode="_JSON {\"qpoint\": [0.5, 0.0, 0.0], \"band\": 3, \"frequency_thz\": 7.918781883704656, \"amplitude\": 2.0, \"phase_degrees\": 120.0, \"dimension\": [[4, 0, 0], [0, 4, 0], [0, 0, 2]], \"coordinates_unwrapped\": true}" pbc="T T T"
Al      -0.01964857       0.01964857       0.01964857      26.98153850 Al_fcc
Al       0.01964857       2.00535143       2.00535143      26.98153850 Al_fcc
Al      -0.01964857       4.06964857       4.06964857      26.98153850 Al_fcc
Al       0.01964857       6.05535143       6.05535143      26.98153850 Al_fcc
Al       2.00535143       0.01964857       2.04464857      26.98153850 Al_fcc
Al       2.04464857       2.00535143       4.03035143      26.98153850 Al_fcc
Al       2.00535143       4.06964857       6.09464857      26.98153850 Al_fcc
Al       2.04464857       6.05535143       8.08035143      26.98153850 Al_fcc
Al       4.03035143       0.01964857       4.06964857      26.98153850 Al_fcc
Al       4.06964857       2.00535143       6.05535143      26.98153850 Al_fcc
Al       4.03035143       4.06964857       8.11964857      26.98153850 Al_fcc
Al       4.06964857       6.05535143      10.10535143      26.98153850 Al_fcc
Al       6.05535143       0.01964857       6.09464857      26.98153850 Al_fcc
Al       6.09464857       2.00535143       8.08035143      26.98153850 Al_fcc
Al       6.05535143       4.06964857      10.14464857      26.98153850 Al_fcc
Al       6.09464857       6.05535143      12.13035143      26.98153850 Al_fcc
Al       2.00535143       2.04464857       0.01964857      26.98153850 Al_fcc
Al       2.04464857       4.03035143       2.00535143      26.98153850 Al_fcc
Al       2.00535143       6.09464857       4.06964857      26.98153850 Al_fcc
Al       2.04464857       8.08035143       6.05535143      26.98153850 Al_fcc
Al       4.03035143       2.04464857       2.04464857      26.98153850 Al_fcc
Al       4.06964857       4.03035143       4.03035143      26.98153850 Al_fcc
Al       4.03035143       6.09464857       6.09464857      26.98153850 Al_fcc
Al       4.06964857       8.08035143       8.08035143      26.98153850 Al_fcc
Al       6.05535143       2.04464857       4.06964857      26.98153850 Al_fcc
Al       6.09464857       4.03035143       6.05535143      26.98153850 Al_fcc
Al       6.05535143       6.09464857       8.11964857      26.98153850 Al_fcc
Al       6.09464857       8.08035143      10.10535143      26.98153850 Al_fcc
Al       8.08035143       2.04464857       6.09464857      26.98153850 Al_fcc
Al       8.11964857       4.03035143       8.08035143      26.98153850 Al_fcc
Al       8.08035143       6.09464857      10.14464857      26.98153850 Al_fcc
Al       8.11964857       8.08035143      12.13035143      26.98153850 Al_fcc
32
Lattice="0.0 8.099999999999998 8.099999999999998 8.099999999999998 0.0 8.099999999999998 4.049999999999999 4.049999999999999 0.0" Properties=species:S:1:pos:R:3:masses:R:1:v_ase_atom_type:S:1 v_ase_phonon_mode="_JSON {\"qpoint\": [0.5, 0.0, 0.0], \"band\": 3, \"frequency_thz\": 7.918781883704656, \"amplitude\": 2.0, \"phase_degrees\": 135.0, \"dimension\": [[4, 0, 0], [0, 4, 0], [0, 0, 2]], \"coordinates_unwrapped\": true}" pbc="T T T"
Al      -0.02778728       0.02778728       0.02778728      26.98153850 Al_fcc
Al       0.02778728       1.99721272       1.99721272      26.98153850 Al_fcc
Al      -0.02778728       4.07778728       4.07778728      26.98153850 Al_fcc
Al       0.02778728       6.04721272       6.04721272      26.98153850 Al_fcc
Al       1.99721272       0.02778728       2.05278728      26.98153850 Al_fcc
Al       2.05278728       1.99721272       4.02221272      26.98153850 Al_fcc
Al       1.99721272       4.07778728       6.10278728      26.98153850 Al_fcc
Al       2.05278728       6.04721272       8.07221272      26.98153850 Al_fcc
Al       4.02221272       0.02778728       4.07778728      26.98153850 Al_fcc
Al       4.07778728       1.99721272       6.04721272      26.98153850 Al_fcc
Al       4.02221272       4.07778728       8.12778728      26.98153850 Al_fcc
Al       4.07778728       6.04721272      10.09721272      26.98153850 Al_fcc
Al       6.04721272       0.02778728       6.10278728      26.98153850 Al_fcc
Al       6.10278728       1.99721272       8.07221272      26.98153850 Al_fcc
Al       6.04721272       4.07778728      10.15278728      26.98153850 Al_fcc
Al       6.10278728       6.04721272      12.12221272      26.98153850 Al_fcc
Al       1.99721272       2.05278728       0.02778728      26.98153850 Al_fcc
Al       2.05278728       4.02221272       1.99721272      26.98153850 Al_fcc
Al       1.99721272       6.10278728       4.07778728      26.98153850 Al_fcc
Al       2.05278728       8.07221272       6.04721272      26.98153850 Al_fcc
Al       4.02221272       2.05278728       2.05278728      26.98153850 Al_fcc
Al       4.07778728       4.02221272       4.02221272      26.98153850 Al_fcc
Al       4.02221272       6.10278728       6.10278728      26.98153850 Al_fcc
Al       4.07778728       8.07221272       8.07221272      26.98153850 Al_fcc
Al       6.04721272       2.05278728       4.07778728      26.98153850 Al_fcc
Al       6.10278728       4.02221272       6.04721272      26.98153850 Al_fcc
Al       6.04721272       6.10278728       8.12778728      26.98153850 Al_fcc
Al       6.10278728       8.07221272      10.09721272      26.98153850 Al_fcc
Al       8.07221272       2.05278728       6.10278728      26.98153850 Al_fcc
Al       8.12778728       4.02221272       8.07221272      26.98153850 Al_fcc
Al       8.07221272       6.10278728      10.15278728      26.98153850 Al_fcc
Al       8.12778728       8.07221272      12.12221272      26.98153850 Al_fcc
32
Lattice="0.0 8.099999999999998 8.099999999999998 8.099999999999998 0.0 8.099999999999998 4.049999999999999 4.049999999999999 0.0" Properties=species:S:1:pos:R:3:masses:R:1:v_ase_atom_type:S:1 v_ase_phonon_mode="_JSON {\"qpoint\": [0.5, 0.0, 0.0], \"band\": 3, \"frequency_thz\": 7.918781883704656, \"amplitude\": 2.0, \"phase_degrees\": 150.0, \"dimension\": [[4, 0, 0], [0, 4, 0], [0, 0, 2]], \"coordinates_unwrapped\": true}" pbc="T T T"
Al      -0.03403233       0.03403233       0.03403233      26.98153850 Al_fcc
Al       0.03403233       1.99096767       1.99096767      26.98153850 Al_fcc
Al      -0.03403233       4.08403233       4.08403233      26.98153850 Al_fcc
Al       0.03403233       6.04096767       6.04096767      26.98153850 Al_fcc
Al       1.99096767       0.03403233       2.05903233      26.98153850 Al_fcc
Al       2.05903233       1.99096767       4.01596767      26.98153850 Al_fcc
Al       1.99096767       4.08403233       6.10903233      26.98153850 Al_fcc
Al       2.05903233       6.04096767       8.06596767      26.98153850 Al_fcc
Al       4.01596767       0.03403233       4.08403233      26.98153850 Al_fcc
Al       4.08403233       1.99096767       6.04096767      26.98153850 Al_fcc
Al       4.01596767       4.08403233       8.13403233      26.98153850 Al_fcc
Al       4.08403233       6.04096767      10.09096767      26.98153850 Al_fcc
Al       6.04096767       0.03403233       6.10903233      26.98153850 Al_fcc
Al       6.10903233       1.99096767       8.06596767      26.98153850 Al_fcc
Al       6.04096767       4.08403233      10.15903233      26.98153850 Al_fcc
Al       6.10903233       6.04096767      12.11596767      26.98153850 Al_fcc
Al       1.99096767       2.05903233       0.03403233      26.98153850 Al_fcc
Al       2.05903233       4.01596767       1.99096767      26.98153850 Al_fcc
Al       1.99096767       6.10903233       4.08403233      26.98153850 Al_fcc
Al       2.05903233       8.06596767       6.04096767      26.98153850 Al_fcc
Al       4.01596767       2.05903233       2.05903233      26.98153850 Al_fcc
Al       4.08403233       4.01596767       4.01596767      26.98153850 Al_fcc
Al       4.01596767       6.10903233       6.10903233      26.98153850 Al_fcc
Al       4.08403233       8.06596767       8.06596767      26.98153850 Al_fcc
Al       6.04096767       2.05903233       4.08403233      26.98153850 Al_fcc
Al       6.10903233       4.01596767       6.04096767      26.98153850 Al_fcc
Al       6.04096767       6.10903233       8.13403233      26.98153850 Al_fcc
Al       6.10903233       8.06596767      10.09096767      26.98153850 Al_fcc
Al       8.06596767       2.05903233       6.10903233      26.98153850 Al_fcc
Al       8.13403233       4.01596767       8.06596767      26.98153850 Al_fcc
Al       8.06596767       6.10903233      10.15903233      26.98153850 Al_fcc
Al       8.13403233       8.06596767      12.11596767      26.98153850 Al_fcc
32
Lattice="0.0 8.099999999999998 8.099999999999998 8.099999999999998 0.0 8.099999999999998 4.049999999999999 4.049999999999999 0.0" Properties=species:S:1:pos:R:3:masses:R:1:v_ase_atom_type:S:1 v_ase_phonon_mode="_JSON {\"qpoint\": [0.5, 0.0, 0.0], \"band\": 3, \"frequency_thz\": 7.918781883704656, \"amplitude\": 2.0, \"phase_degrees\": 165.0, \"dimension\": [[4, 0, 0], [0, 4, 0], [0, 0, 2]], \"coordinates_unwrapped\": true}" pbc="T T T"
Al      -0.03795813       0.03795813       0.03795813      26.98153850 Al_fcc
Al       0.03795813       1.98704187       1.98704187      26.98153850 Al_fcc
Al      -0.03795813       4.08795813       4.08795813      26.98153850 Al_fcc
Al       0.03795813       6.03704187       6.03704187      26.98153850 Al_fcc
Al       1.98704187       0.03795813       2.06295813      26.98153850 Al_fcc
Al       2.06295813       1.98704187       4.01204187      26.98153850 Al_fcc
Al       1.98704187       4.08795813       6.11295813      26.98153850 Al_fcc
Al       2.06295813       6.03704187       8.06204187      26.98153850 Al_fcc
Al       4.01204187       0.03795813       4.08795813      26.98153850 Al_fcc
Al       4.08795813       1.98704187       6.03704187      26.98153850 Al_fcc
Al       4.01204187       4.08795813       8.13795813      26.98153850 Al_fcc
Al       4.08795813       6.03704187      10.08704187      26.98153850 Al_fcc
Al       6.03704187       0.03795813       6.11295813      26.98153850 Al_fcc
Al       6.11295813       1.98704187       8.06204187      26.98153850 Al_fcc
Al       6.03704187       4.08795813      10.16295813      26.98153850 Al_fcc
Al       6.11295813       6.03704187      12.11204187      26.98153850 Al_fcc
Al       1.98704187       2.06295813       0.03795813      26.98153850 Al_fcc
Al       2.06295813       4.01204187       1.98704187      26.98153850 Al_fcc
Al       1.98704187       6.11295813       4.08795813      26.98153850 Al_fcc
Al       2.06295813       8.06204187       6.03704187      26.98153850 Al_fcc
Al       4.01204187       2.06295813       2.06295813      26.98153850 Al_fcc
Al       4.08795813       4.01204187       4.01204187      26.98153850 Al_fcc
Al       4.01204187       6.11295813       6.11295813      26.98153850 Al_fcc
Al       4.08795813       8.06204187       8.06204187      26.98153850 Al_fcc
Al       6.03704187       2.06295813       4.08795813      26.98153850 Al_fcc
Al       6.11295813       4.01204187       6.03704187      26.98153850 Al_fcc
Al       6.03704187       6.11295813       8.13795813      26.98153850 Al_fcc
Al       6.11295813       8.06204187      10.08704187      26.98153850 Al_fcc
Al       8.06204187       2.06295813       6.11295813      26.98153850 Al_fcc
Al       8.13795813       4.01204187       8.06204187      26.98153850 Al_fcc
Al       8.06204187       6.11295813      10.16295813      26.98153850 Al_fcc
Al       8.13795813       8.06204187      12.11204187      26.98153850 Al_fcc
32
Lattice="0.0 8.099999999999998 8.099999999999998 8.099999999999998 0.0 8.099999999999998 4.049999999999999 4.049999999999999 0.0" Properties=species:S:1:pos:R:3:masses:R:1:v_ase_atom_type:S:1 v_ase_phonon_mode="_JSON {\"qpoint\": [0.5, 0.0, 0.0], \"band\": 3, \"frequency_thz\": 7.918781883704656, \"amplitude\": 2.0, \"phase_degrees\": 180.0, \"dimension\": [[4, 0, 0], [0, 4, 0], [0, 0, 2]], \"coordinates_unwrapped\": true}" pbc="T T T"
Al      -0.03929715       0.03929715       0.03929715      26.98153850 Al_fcc
Al       0.03929715       1.98570285       1.98570285      26.98153850 Al_fcc
Al      -0.03929715       4.08929715       4.08929715      26.98153850 Al_fcc
Al       0.03929715       6.03570285       6.03570285      26.98153850 Al_fcc
Al       1.98570285       0.03929715       2.06429715      26.98153850 Al_fcc
Al       2.06429715       1.98570285       4.01070285      26.98153850 Al_fcc
Al       1.98570285       4.08929715       6.11429715      26.98153850 Al_fcc
Al       2.06429715       6.03570285       8.06070285      26.98153850 Al_fcc
Al       4.01070285       0.03929715       4.08929715      26.98153850 Al_fcc
Al       4.08929715       1.98570285       6.03570285      26.98153850 Al_fcc
Al       4.01070285       4.08929715       8.13929715      26.98153850 Al_fcc
Al       4.08929715       6.03570285      10.08570285      26.98153850 Al_fcc
Al       6.03570285       0.03929715       6.11429715      26.98153850 Al_fcc
Al       6.11429715       1.98570285       8.06070285      26.98153850 Al_fcc
Al       6.03570285       4.08929715      10.16429715      26.98153850 Al_fcc
Al       6.11429715       6.03570285      12.11070285      26.98153850 Al_fcc
Al       1.98570285       2.06429715       0.03929715      26.98153850 Al_fcc
Al       2.06429715       4.01070285       1.98570285      26.98153850 Al_fcc
Al       1.98570285       6.11429715       4.08929715      26.98153850 Al_fcc
Al       2.06429715       8.06070285       6.03570285      26.98153850 Al_fcc
Al       4.01070285       2.06429715       2.06429715      26.98153850 Al_fcc
Al       4.08929715       4.01070285       4.01070285      26.98153850 Al_fcc
Al       4.01070285       6.11429715       6.11429715      26.98153850 Al_fcc
Al       4.08929715       8.06070285       8.06070285      26.98153850 Al_fcc
Al       6.03570285       2.06429715       4.08929715      26.98153850 Al_fcc
Al       6.11429715       4.01070285       6.03570285      26.98153850 Al_fcc
Al       6.03570285       6.11429715       8.13929715      26.98153850 Al_fcc
Al       6.11429715       8.06070285      10.08570285      26.98153850 Al_fcc
Al       8.06070285       2.06429715       6.11429715      26.98153850 Al_fcc
Al       8.13929715       4.01070285       8.06070285      26.98153850 Al_fcc
Al       8.06070285       6.11429715      10.16429715      26.98153850 Al_fcc
Al       8.13929715       8.06070285      12.11070285      26.98153850 Al_fcc
32
Lattice="0.0 8.099999999999998 8.099999999999998 8.099999999999998 0.0 8.099999999999998 4.049999999999999 4.049999999999999 0.0" Properties=species:S:1:pos:R:3:masses:R:1:v_ase_atom_type:S:1 v_ase_phonon_mode="_JSON {\"qpoint\": [0.5, 0.0, 0.0], \"band\": 3, \"frequency_thz\": 7.918781883704656, \"amplitude\": 2.0, \"phase_degrees\": 195.0, \"dimension\": [[4, 0, 0], [0, 4, 0], [0, 0, 2]], \"coordinates_unwrapped\": true}" pbc="T T T"
Al      -0.03795813       0.03795813       0.03795813      26.98153850 Al_fcc
Al       0.03795813       1.98704187       1.98704187      26.98153850 Al_fcc
Al      -0.03795813       4.08795813       4.08795813      26.98153850 Al_fcc
Al       0.03795813       6.03704187       6.03704187      26.98153850 Al_fcc
Al       1.98704187       0.03795813       2.06295813      26.98153850 Al_fcc
Al       2.06295813       1.98704187       4.01204187      26.98153850 Al_fcc
Al       1.98704187       4.08795813       6.11295813      26.98153850 Al_fcc
Al       2.06295813       6.03704187       8.06204187      26.98153850 Al_fcc
Al       4.01204187       0.03795813       4.08795813      26.98153850 Al_fcc
Al       4.08795813       1.98704187       6.03704187      26.98153850 Al_fcc
Al       4.01204187       4.08795813       8.13795813      26.98153850 Al_fcc
Al       4.08795813       6.03704187      10.08704187      26.98153850 Al_fcc
Al       6.03704187       0.03795813       6.11295813      26.98153850 Al_fcc
Al       6.11295813       1.98704187       8.06204187      26.98153850 Al_fcc
Al       6.03704187       4.08795813      10.16295813      26.98153850 Al_fcc
Al       6.11295813       6.03704187      12.11204187      26.98153850 Al_fcc
Al       1.98704187       2.06295813       0.03795813      26.98153850 Al_fcc
Al       2.06295813       4.01204187       1.98704187      26.98153850 Al_fcc
Al       1.98704187       6.11295813       4.08795813      26.98153850 Al_fcc
Al       2.06295813       8.06204187       6.03704187      26.98153850 Al_fcc
Al       4.01204187       2.06295813       2.06295813      26.98153850 Al_fcc
Al       4.08795813       4.01204187       4.01204187      26.98153850 Al_fcc
Al       4.01204187       6.11295813       6.11295813      26.98153850 Al_fcc
Al       4.08795813       8.06204187       8.06204187      26.98153850 Al_fcc
Al       6.03704187       2.06295813       4.08795813      26.98153850 Al_fcc
Al       6.11295813       4.01204187       6.03704187      26.98153850 Al_fcc
Al       6.03704187       6.11295813       8.13795813      26.98153850 Al_fcc
Al       6.11295813       8.06204187      10.08704187      26.98153850 Al_fcc
Al       8.06204187       2.06295813       6.11295813      26.98153850 Al_fcc
Al       8.13795813       4.01204187       8.06204187      26.98153850 Al_fcc
Al       8.06204187       6.11295813      10.16295813      26.98153850 Al_fcc
Al       8.13795813       8.06204187      12.11204187      26.98153850 Al_fcc
32
Lattice="0.0 8.099999999999998 8.099999999999998 8.099999999999998 0.0 8.099999999999998 4.049999999999999 4.049999999999999 0.0" Properties=species:S:1:pos:R:3:masses:R:1:v_ase_atom_type:S:1 v_ase_phonon_mode="_JSON {\"qpoint\": [0.5, 0.0, 0.0], \"band\": 3, \"frequency_thz\": 7.918781883704656, \"amplitude\": 2.0, \"phase_degrees\": 210.0, \"dimension\": [[4, 0, 0], [0, 4, 0], [0, 0, 2]], \"coordinates_unwrapped\": true}" pbc="T T T"
Al      -0.03403233       0.03403233       0.03403233      26.98153850 Al_fcc
Al       0.03403233       1.99096767       1.99096767      26.98153850 Al_fcc
Al      -0.03403233       4.08403233       4.08403233      26.98153850 Al_fcc
Al       0.03403233       6.04096767       6.04096767      26.98153850 Al_fcc
Al       1.99096767       0.03403233       2.05903233      26.98153850 Al_fcc
Al       2.05903233       1.99096767       4.01596767      26.98153850 Al_fcc
Al       1.99096767       4.08403233       6.10903233      26.98153850 Al_fcc
Al       2.05903233       6.04096767       8.06596767      26.98153850 Al_fcc
Al       4.01596767       0.03403233       4.08403233      26.98153850 Al_fcc
Al       4.08403233       1.99096767       6.04096767      26.98153850 Al_fcc
Al       4.01596767       4.08403233       8.13403233      26.98153850 Al_fcc
Al       4.08403233       6.04096767      10.09096767      26.98153850 Al_fcc
Al       6.04096767       0.03403233       6.10903233      26.98153850 Al_fcc
Al       6.10903233       1.99096767       8.06596767      26.98153850 Al_fcc
Al       6.04096767       4.08403233      10.15903233      26.98153850 Al_fcc
Al       6.10903233       6.04096767      12.11596767      26.98153850 Al_fcc
Al       1.99096767       2.05903233       0.03403233      26.98153850 Al_fcc
Al       2.05903233       4.01596767       1.99096767      26.98153850 Al_fcc
Al       1.99096767       6.10903233       4.08403233      26.98153850 Al_fcc
Al       2.05903233       8.06596767       6.04096767      26.98153850 Al_fcc
Al       4.01596767       2.05903233       2.05903233      26.98153850 Al_fcc
Al       4.08403233       4.01596767       4.01596767      26.98153850 Al_fcc
Al       4.01596767       6.10903233       6.10903233      26.98153850 Al_fcc
Al       4.08403233       8.06596767       8.06596767      26.98153850 Al_fcc
Al       6.04096767       2.05903233       4.08403233      26.98153850 Al_fcc
Al       6.10903233       4.01596767       6.04096767      26.98153850 Al_fcc
Al       6.04096767       6.10903233       8.13403233      26.98153850 Al_fcc
Al       6.10903233       8.06596767      10.09096767      26.98153850 Al_fcc
Al       8.06596767       2.05903233       6.10903233      26.98153850 Al_fcc
Al       8.13403233       4.01596767       8.06596767      26.98153850 Al_fcc
Al       8.06596767       6.10903233      10.15903233      26.98153850 Al_fcc
Al       8.13403233       8.06596767      12.11596767      26.98153850 Al_fcc
32
Lattice="0.0 8.099999999999998 8.099999999999998 8.099999999999998 0.0 8.099999999999998 4.049999999999999 4.049999999999999 0.0" Properties=species:S:1:pos:R:3:masses:R:1:v_ase_atom_type:S:1 v_ase_phonon_mode="_JSON {\"qpoint\": [0.5, 0.0, 0.0], \"band\": 3, \"frequency_thz\": 7.918781883704656, \"amplitude\": 2.0, \"phase_degrees\": 225.0, \"dimension\": [[4, 0, 0], [0, 4, 0], [0, 0, 2]], \"coordinates_unwrapped\": true}" pbc="T T T"
Al      -0.02778728       0.02778728       0.02778728      26.98153850 Al_fcc
Al       0.02778728       1.99721272       1.99721272      26.98153850 Al_fcc
Al      -0.02778728       4.07778728       4.07778728      26.98153850 Al_fcc
Al       0.02778728       6.04721272       6.04721272      26.98153850 Al_fcc
Al       1.99721272       0.02778728       2.05278728      26.98153850 Al_fcc
Al       2.05278728       1.99721272       4.02221272      26.98153850 Al_fcc
Al       1.99721272       4.07778728       6.10278728      26.98153850 Al_fcc
Al       2.05278728       6.04721272       8.07221272      26.98153850 Al_fcc
Al       4.02221272       0.02778728       4.07778728      26.98153850 Al_fcc
Al       4.07778728       1.99721272       6.04721272      26.98153850 Al_fcc
Al       4.02221272       4.07778728       8.12778728      26.98153850 Al_fcc
Al       4.07778728       6.04721272      10.09721272      26.98153850 Al_fcc
Al       6.04721272       0.02778728       6.10278728      26.98153850 Al_fcc
Al       6.10278728       1.99721272       8.07221272      26.98153850 Al_fcc
Al       6.04721272       4.07778728      10.15278728      26.98153850 Al_fcc
Al       6.10278728       6.04721272      12.12221272      26.98153850 Al_fcc
Al       1.99721272       2.05278728       0.02778728      26.98153850 Al_fcc
Al       2.05278728       4.02221272       1.99721272      26.98153850 Al_fcc
Al       1.99721272       6.10278728       4.07778728      26.98153850 Al_fcc
Al       2.05278728       8.07221272       6.04721272      26.98153850 Al_fcc
Al       4.02221272       2.05278728       2.05278728      26.98153850 Al_fcc
Al       4.07778728       4.02221272       4.02221272      26.98153850 Al_fcc
Al       4.02221272       6.10278728       6.10278728      26.98153850 Al_fcc
Al       4.07778728       8.07221272       8.07221272      26.98153850 Al_fcc
Al       6.04721272       2.05278728       4.07778728      26.98153850 Al_fcc
Al       6.10278728       4.02221272       6.04721272      26.98153850 Al_fcc
Al       6.04721272       6.10278728       8.12778728      26.98153850 Al_fcc
Al       6.10278728       8.07221272      10.09721272      26.98153850 Al_fcc
Al       8.07221272       2.05278728       6.10278728      26.98153850 Al_fcc
Al       8.12778728       4.02221272       8.07221272      26.98153850 Al_fcc
Al       8.07221272       6.10278728      10.15278728      26.98153850 Al_fcc
Al       8.12778728       8.07221272      12.12221272      26.98153850 Al_fcc
32
Lattice="0.0 8.099999999999998 8.099999999999998 8.099999999999998 0.0 8.099999999999998 4.049999999999999 4.049999999999999 0.0" Properties=species:S:1:pos:R:3:masses:R:1:v_ase_atom_type:S:1 v_ase_phonon_mode="_JSON {\"qpoint\": [0.5, 0.0, 0.0], \"band\": 3, \"frequency_thz\": 7.918781883704656, \"amplitude\": 2.0, \"phase_degrees\": 240.0, \"dimension\": [[4, 0, 0], [0, 4, 0], [0, 0, 2]], \"coordinates_unwrapped\": true}" pbc="T T T"
Al      -0.01964857       0.01964857       0.01964857      26.98153850 Al_fcc
Al       0.01964857       2.00535143       2.00535143      26.98153850 Al_fcc
Al      -0.01964857       4.06964857       4.06964857      26.98153850 Al_fcc
Al       0.01964857       6.05535143       6.05535143      26.98153850 Al_fcc
Al       2.00535143       0.01964857       2.04464857      26.98153850 Al_fcc
Al       2.04464857       2.00535143       4.03035143      26.98153850 Al_fcc
Al       2.00535143       4.06964857       6.09464857      26.98153850 Al_fcc
Al       2.04464857       6.05535143       8.08035143      26.98153850 Al_fcc
Al       4.03035143       0.01964857       4.06964857      26.98153850 Al_fcc
Al       4.06964857       2.00535143       6.05535143      26.98153850 Al_fcc
Al       4.03035143       4.06964857       8.11964857      26.98153850 Al_fcc
Al       4.06964857       6.05535143      10.10535143      26.98153850 Al_fcc
Al       6.05535143       0.01964857       6.09464857      26.98153850 Al_fcc
Al       6.09464857       2.00535143       8.08035143      26.98153850 Al_fcc
Al       6.05535143       4.06964857      10.14464857      26.98153850 Al_fcc
Al       6.09464857       6.05535143      12.13035143      26.98153850 Al_fcc
Al       2.00535143       2.04464857       0.01964857      26.98153850 Al_fcc
Al       2.04464857       4.03035143       2.00535143      26.98153850 Al_fcc
Al       2.00535143       6.09464857       4.06964857      26.98153850 Al_fcc
Al       2.04464857       8.08035143       6.05535143      26.98153850 Al_fcc
Al       4.03035143       2.04464857       2.04464857      26.98153850 Al_fcc
Al       4.06964857       4.03035143       4.03035143      26.98153850 Al_fcc
Al       4.03035143       6.09464857       6.09464857      26.98153850 Al_fcc
Al       4.06964857       8.08035143       8.08035143      26.98153850 Al_fcc
Al       6.05535143       2.04464857       4.06964857      26.98153850 Al_fcc
Al       6.09464857       4.03035143       6.05535143      26.98153850 Al_fcc
Al       6.05535143       6.09464857       8.11964857      26.98153850 Al_fcc
Al       6.09464857       8.08035143      10.10535143      26.98153850 Al_fcc
Al       8.08035143       2.04464857       6.09464857      26.98153850 Al_fcc
Al       8.11964857       4.03035143       8.08035143      26.98153850 Al_fcc
Al       8.08035143       6.09464857      10.14464857      26.98153850 Al_fcc
Al       8.11964857       8.08035143      12.13035143      26.98153850 Al_fcc
32
Lattice="0.0 8.099999999999998 8.099999999999998 8.099999999999998 0.0 8.099999999999998 4.049999999999999 4.049999999999999 0.0" Properties=species:S:1:pos:R:3:masses:R:1:v_ase_atom_type:S:1 v_ase_phonon_mode="_JSON {\"qpoint\": [0.5, 0.0, 0.0], \"band\": 3, \"frequency_thz\": 7.918781883704656, \"amplitude\": 2.0, \"phase_degrees\": 255.0, \"dimension\": [[4, 0, 0], [0, 4, 0], [0, 0, 2]], \"coordinates_unwrapped\": true}" pbc="T T T"
Al      -0.01017085       0.01017085       0.01017085      26.98153850 Al_fcc
Al       0.01017085       2.01482915       2.01482915      26.98153850 Al_fcc
Al      -0.01017085       4.06017085       4.06017085      26.98153850 Al_fcc
Al       0.01017085       6.06482915       6.06482915      26.98153850 Al_fcc
Al       2.01482915       0.01017085       2.03517085      26.98153850 Al_fcc
Al       2.03517085       2.01482915       4.03982915      26.98153850 Al_fcc
Al       2.01482915       4.06017085       6.08517085      26.98153850 Al_fcc
Al       2.03517085       6.06482915       8.08982915      26.98153850 Al_fcc
Al       4.03982915       0.01017085       4.06017085      26.98153850 Al_fcc
Al       4.06017085       2.01482915       6.06482915      26.98153850 Al_fcc
Al       4.03982915       4.06017085       8.11017085      26.98153850 Al_fcc
Al       4.06017085       6.06482915      10.11482915      26.98153850 Al_fcc
Al       6.06482915       0.01017085       6.08517085      26.98153850 Al_fcc
Al       6.08517085       2.01482915       8.08982915      26.98153850 Al_fcc
Al       6.06482915       4.06017085      10.13517085      26.98153850 Al_fcc
Al       6.08517085       6.06482915      12.13982915      26.98153850 Al_fcc
Al       2.01482915       2.03517085       0.01017085      26.98153850 Al_fcc
Al       2.03517085       4.03982915       2.01482915      26.98153850 Al_fcc
Al       2.01482915       6.08517085       4.06017085      26.98153850 Al_fcc
Al       2.03517085       8.08982915       6.06482915      26.98153850 Al_fcc
Al       4.03982915       2.03517085       2.03517085      26.98153850 Al_fcc
Al       4.06017085       4.03982915       4.03982915      26.98153850 Al_fcc
Al       4.03982915       6.08517085       6.08517085      26.98153850 Al_fcc
Al       4.06017085       8.08982915       8.08982915      26.98153850 Al_fcc
Al       6.06482915       2.03517085       4.06017085      26.98153850 Al_fcc
Al       6.08517085       4.03982915       6.06482915      26.98153850 Al_fcc
Al       6.06482915       6.08517085       8.11017085      26.98153850 Al_fcc
Al       6.08517085       8.08982915      10.11482915      26.98153850 Al_fcc
Al       8.08982915       2.03517085       6.08517085      26.98153850 Al_fcc
Al       8.11017085       4.03982915       8.08982915      26.98153850 Al_fcc
Al       8.08982915       6.08517085      10.13517085      26.98153850 Al_fcc
Al       8.11017085       8.08982915      12.13982915      26.98153850 Al_fcc
32
Lattice="0.0 8.099999999999998 8.099999999999998 8.099999999999998 0.0 8.099999999999998 4.049999999999999 4.049999999999999 0.0" Properties=species:S:1:pos:R:3:masses:R:1:v_ase_atom_type:S:1 v_ase_phonon_mode="_JSON {\"qpoint\": [0.5, 0.0, 0.0], \"band\": 3, \"frequency_thz\": 7.918781883704656, \"amplitude\": 2.0, \"phase_degrees\": 270.0, \"dimension\": [[4, 0, 0], [0, 4, 0], [0, 0, 2]], \"coordinates_unwrapped\": true}" pbc="T T T"
Al       0.00000000       0.00000000       0.00000000      26.98153850 Al_fcc
Al       0.00000000       2.02500000       2.02500000      26.98153850 Al_fcc
Al       0.00000000       4.05000000       4.05000000      26.98153850 Al_fcc
Al       0.00000000       6.07500000       6.07500000      26.98153850 Al_fcc
Al       2.02500000       0.00000000       2.02500000      26.98153850 Al_fcc
Al       2.02500000       2.02500000       4.05000000      26.98153850 Al_fcc
Al       2.02500000       4.05000000       6.07500000      26.98153850 Al_fcc
Al       2.02500000       6.07500000       8.10000000      26.98153850 Al_fcc
Al       4.05000000       0.00000000       4.05000000      26.98153850 Al_fcc
Al       4.05000000       2.02500000       6.07500000      26.98153850 Al_fcc
Al       4.05000000       4.05000000       8.10000000      26.98153850 Al_fcc
Al       4.05000000       6.07500000      10.12500000      26.98153850 Al_fcc
Al       6.07500000       0.00000000       6.07500000      26.98153850 Al_fcc
Al       6.07500000       2.02500000       8.10000000      26.98153850 Al_fcc
Al       6.07500000       4.05000000      10.12500000      26.98153850 Al_fcc
Al       6.07500000       6.07500000      12.15000000      26.98153850 Al_fcc
Al       2.02500000       2.02500000       0.00000000      26.98153850 Al_fcc
Al       2.02500000       4.05000000       2.02500000      26.98153850 Al_fcc
Al       2.02500000       6.07500000       4.05000000      26.98153850 Al_fcc
Al       2.02500000       8.10000000       6.07500000      26.98153850 Al_fcc
Al       4.05000000       2.02500000       2.02500000      26.98153850 Al_fcc
Al       4.05000000       4.05000000       4.05000000      26.98153850 Al_fcc
Al       4.05000000       6.07500000       6.07500000      26.98153850 Al_fcc
Al       4.05000000       8.10000000       8.10000000      26.98153850 Al_fcc
Al       6.07500000       2.02500000       4.05000000      26.98153850 Al_fcc
Al       6.07500000       4.05000000       6.07500000      26.98153850 Al_fcc
Al       6.07500000       6.07500000       8.10000000      26.98153850 Al_fcc
Al       6.07500000       8.10000000      10.12500000      26.98153850 Al_fcc
Al       8.10000000       2.02500000       6.07500000      26.98153850 Al_fcc
Al       8.10000000       4.05000000       8.10000000      26.98153850 Al_fcc
Al       8.10000000       6.07500000      10.12500000      26.98153850 Al_fcc
Al       8.10000000       8.10000000      12.15000000      26.98153850 Al_fcc
32
Lattice="0.0 8.099999999999998 8.099999999999998 8.099999999999998 0.0 8.099999999999998 4.049999999999999 4.049999999999999 0.0" Properties=species:S:1:pos:R:3:masses:R:1:v_ase_atom_type:S:1 v_ase_phonon_mode="_JSON {\"qpoint\": [0.5, 0.0, 0.0], \"band\": 3, \"frequency_thz\": 7.918781883704656, \"amplitude\": 2.0, \"phase_degrees\": 285.0, \"dimension\": [[4, 0, 0], [0, 4, 0], [0, 0, 2]], \"coordinates_unwrapped\": true}" pbc="T T T"
Al       0.01017085      -0.01017085      -0.01017085      26.98153850 Al_fcc
Al      -0.01017085       2.03517085       2.03517085      26.98153850 Al_fcc
Al       0.01017085       4.03982915       4.03982915      26.98153850 Al_fcc
Al      -0.01017085       6.08517085       6.08517085      26.98153850 Al_fcc
Al       2.03517085      -0.01017085       2.01482915      26.98153850 Al_fcc
Al       2.01482915       2.03517085       4.06017085      26.98153850 Al_fcc
Al       2.03517085       4.03982915       6.06482915      26.98153850 Al_fcc
Al       2.01482915       6.08517085       8.11017085      26.98153850 Al_fcc
Al       4.06017085      -0.01017085       4.03982915      26.98153850 Al_fcc
Al       4.03982915       2.03517085       6.08517085      26.98153850 Al_fcc
Al       4.06017085       4.03982915       8.08982915      26.98153850 Al_fcc
Al       4.03982915       6.08517085      10.13517085      26.98153850 Al_fcc
Al       6.08517085      -0.01017085       6.06482915      26.98153850 Al_fcc
Al       6.06482915       2.03517085       8.11017085      26.98153850 Al_fcc
Al       6.08517085       4.03982915      10.11482915      26.98153850 Al_fcc
Al       6.06482915       6.08517085      12.16017085      26.98153850 Al_fcc
Al       2.03517085       2.01482915      -0.01017085      26.98153850 Al_fcc
Al       2.01482915       4.06017085       2.03517085      26.98153850 Al_fcc
Al       2.03517085       6.06482915       4.03982915      26.98153850 Al_fcc
Al       2.01482915       8.11017085       6.08517085      26.98153850 Al_fcc
Al       4.06017085       2.01482915       2.01482915      26.98153850 Al_fcc
Al       4.03982915       4.06017085       4.06017085      26.98153850 Al_fcc
Al       4.06017085       6.06482915       6.06482915      26.98153850 Al_fcc
Al       4.03982915       8.11017085       8.11017085      26.98153850 Al_fcc
Al       6.08517085       2.01482915       4.03982915      26.98153850 Al_fcc
Al       6.06482915       4.06017085       6.08517085      26.98153850 Al_fcc
Al       6.08517085       6.06482915       8.08982915      26.98153850 Al_fcc
Al       6.06482915       8.11017085      10.13517085      26.98153850 Al_fcc
Al       8.11017085       2.01482915       6.06482915      26.98153850 Al_fcc
Al       8.08982915       4.06017085       8.11017085      26.98153850 Al_fcc
Al       8.11017085       6.06482915      10.11482915      26.98153850 Al_fcc
Al       8.08982915       8.11017085      12.16017085      26.98153850 Al_fcc
32
Lattice="0.0 8.099999999999998 8.099999999999998 8.099999999999998 0.0 8.099999999999998 4.049999999999999 4.049999999999999 0.0" Properties=species:S:1:pos:R:3:masses:R:1:v_ase_atom_type:S:1 v_ase_phonon_mode="_JSON {\"qpoint\": [0.5, 0.0, 0.0], \"band\": 3, \"frequency_thz\": 7.918781883704656, \"amplitude\": 2.0, \"phase_degrees\": 300.0, \"dimension\": [[4, 0, 0], [0, 4, 0], [0, 0, 2]], \"coordinates_unwrapped\": true}" pbc="T T T"
Al       0.01964857      -0.01964857      -0.01964857      26.98153850 Al_fcc
Al      -0.01964857       2.04464857       2.04464857      26.98153850 Al_fcc
Al       0.01964857       4.03035143       4.03035143      26.98153850 Al_fcc
Al      -0.01964857       6.09464857       6.09464857      26.98153850 Al_fcc
Al       2.04464857      -0.01964857       2.00535143      26.98153850 Al_fcc
Al       2.00535143       2.04464857       4.06964857      26.98153850 Al_fcc
Al       2.04464857       4.03035143       6.05535143      26.98153850 Al_fcc
Al       2.00535143       6.09464857       8.11964857      26.98153850 Al_fcc
Al       4.06964857      -0.01964857       4.03035143      26.98153850 Al_fcc
Al       4.03035143       2.04464857       6.09464857      26.98153850 Al_fcc
Al       4.06964857       4.03035143       8.08035143      26.98153850 Al_fcc
Al       4.03035143       6.09464857      10.14464857      26.98153850 Al_fcc
Al       6.09464857      -0.01964857       6.05535143      26.98153850 Al_fcc
Al       6.05535143       2.04464857       8.11964857      26.98153850 Al_fcc
Al       6.09464857       4.03035143      10.10535143      26.98153850 Al_fcc
Al       6.05535143       6.09464857      12.16964857      26.98153850 Al_fcc
Al       2.04464857       2.00535143      -0.01964857      26.98153850 Al_fcc
Al       2.00535143       4.06964857       2.04464857      26.98153850 Al_fcc
Al       2.04464857       6.05535143       4.03035143      26.98153850 Al_fcc
Al       2.00535143       8.11964857       6.09464857      26.98153850 Al_fcc
Al       4.06964857       2.00535143       2.00535143      26.98153850 Al_fcc
Al       4.03035143       4.06964857       4.06964857      26.98153850 Al_fcc
Al       4.06964857       6.05535143       6.05535143      26.98153850 Al_fcc
Al       4.03035143       8.11964857       8.11964857      26.98153850 Al_fcc
Al       6.09464857       2.00535143       4.03035143      26.98153850 Al_fcc
Al       6.05535143       4.06964857       6.09464857      26.98153850 Al_fcc
Al       6.09464857       6.05535143       8.08035143      26.98153850 Al_fcc
Al       6.05535143       8.11964857      10.14464857      26.98153850 Al_fcc
Al       8.11964857       2.00535143       6.05535143      26.98153850 Al_fcc
Al       8.08035143       4.06964857       8.11964857      26.98153850 Al_fcc
Al       8.11964857       6.05535143      10.10535143      26.98153850 Al_fcc
Al       8.08035143       8.11964857      12.16964857      26.98153850 Al_fcc
32
Lattice="0.0 8.099999999999998 8.099999999999998 8.099999999999998 0.0 8.099999999999998 4.049999999999999 4.049999999999999 0.0" Properties=species:S:1:pos:R:3:masses:R:1:v_ase_atom_type:S:1 v_ase_phonon_mode="_JSON {\"qpoint\": [0.5, 0.0, 0.0], \"band\": 3, \"frequency_thz\": 7.918781883704656, \"amplitude\": 2.0, \"phase_degrees\": 315.0, \"dimension\": [[4, 0, 0], [0, 4, 0], [0, 0, 2]], \"coordinates_unwrapped\": true}" pbc="T T T"
Al       0.02778728      -0.02778728      -0.02778728      26.98153850 Al_fcc
Al      -0.02778728       2.05278728       2.05278728      26.98153850 Al_fcc
Al       0.02778728       4.02221272       4.02221272      26.98153850 Al_fcc
Al      -0.02778728       6.10278728       6.10278728      26.98153850 Al_fcc
Al       2.05278728      -0.02778728       1.99721272      26.98153850 Al_fcc
Al       1.99721272       2.05278728       4.07778728      26.98153850 Al_fcc
Al       2.05278728       4.02221272       6.04721272      26.98153850 Al_fcc
Al       1.99721272       6.10278728       8.12778728      26.98153850 Al_fcc
Al       4.07778728      -0.02778728       4.02221272      26.98153850 Al_fcc
Al       4.02221272       2.05278728       6.10278728      26.98153850 Al_fcc
Al       4.07778728       4.02221272       8.07221272      26.98153850 Al_fcc
Al       4.02221272       6.10278728      10.15278728      26.98153850 Al_fcc
Al       6.10278728      -0.02778728       6.04721272      26.98153850 Al_fcc
Al       6.04721272       2.05278728       8.12778728      26.98153850 Al_fcc
Al       6.10278728       4.02221272      10.09721272      26.98153850 Al_fcc
Al       6.04721272       6.10278728      12.17778728      26.98153850 Al_fcc
Al       2.05278728       1.99721272      -0.02778728      26.98153850 Al_fcc
Al       1.99721272       4.07778728       2.05278728      26.98153850 Al_fcc
Al       2.05278728       6.04721272       4.02221272      26.98153850 Al_fcc
Al       1.99721272       8.12778728       6.10278728      26.98153850 Al_fcc
Al       4.07778728       1.99721272       1.99721272      26.98153850 Al_fcc
Al       4.02221272       4.07778728       4.07778728      26.98153850 Al_fcc
Al       4.07778728       6.04721272       6.04721272      26.98153850 Al_fcc
Al       4.02221272       8.12778728       8.12778728      26.98153850 Al_fcc
Al       6.10278728       1.99721272       4.02221272      26.98153850 Al_fcc
Al       6.04721272       4.07778728       6.10278728      26.98153850 Al_fcc
Al       6.10278728       6.04721272       8.07221272      26.98153850 Al_fcc
Al       6.04721272       8.12778728      10.15278728      26.98153850 Al_fcc
Al       8.12778728       1.99721272       6.04721272      26.98153850 Al_fcc
Al       8.07221272       4.07778728       8.12778728      26.98153850 Al_fcc
Al       8.12778728       6.04721272      10.09721272      26.98153850 Al_fcc
Al       8.07221272       8.12778728      12.17778728      26.98153850 Al_fcc
32
Lattice="0.0 8.099999999999998 8.099999999999998 8.099999999999998 0.0 8.099999999999998 4.049999999999999 4.049999999999999 0.0" Properties=species:S:1:pos:R:3:masses:R:1:v_ase_atom_type:S:1 v_ase_phonon_mode="_JSON {\"qpoint\": [0.5, 0.0, 0.0], \"band\": 3, \"frequency_thz\": 7.918781883704656, \"amplitude\": 2.0, \"phase_degrees\": 330.0, \"dimension\": [[4, 0, 0], [0, 4, 0], [0, 0, 2]], \"coordinates_unwrapped\": true}" pbc="T T T"
Al       0.03403233      -0.03403233      -0.03403233      26.98153850 Al_fcc
Al      -0.03403233       2.05903233       2.05903233      26.98153850 Al_fcc
Al       0.03403233       4.01596767       4.01596767      26.98153850 Al_fcc
Al      -0.03403233       6.10903233       6.10903233      26.98153850 Al_fcc
Al       2.05903233      -0.03403233       1.99096767      26.98153850 Al_fcc
Al       1.99096767       2.05903233       4.08403233      26.98153850 Al_fcc
Al       2.05903233       4.01596767       6.04096767      26.98153850 Al_fcc
Al       1.99096767       6.10903233       8.13403233      26.98153850 Al_fcc
Al       4.08403233      -0.03403233       4.01596767      26.98153850 Al_fcc
Al       4.01596767       2.05903233       6.10903233      26.98153850 Al_fcc
Al       4.08403233       4.01596767       8.06596767      26.98153850 Al_fcc
Al       4.01596767       6.10903233      10.15903233      26.98153850 Al_fcc
Al       6.10903233      -0.03403233       6.04096767      26.98153850 Al_fcc
Al       6.04096767       2.05903233       8.13403233      26.98153850 Al_fcc
Al       6.10903233       4.01596767      10.09096767      26.98153850 Al_fcc
Al       6.04096767       6.10903233      12.18403233      26.98153850 Al_fcc
Al       2.05903233       1.99096767      -0.03403233      26.98153850 Al_fcc
Al       1.99096767       4.08403233       2.05903233      26.98153850 Al_fcc
Al       2.05903233       6.04096767       4.01596767      26.98153850 Al_fcc
Al       1.99096767       8.13403233       6.10903233      26.98153850 Al_fcc
Al       4.08403233       1.99096767       1.99096767      26.98153850 Al_fcc
Al       4.01596767       4.08403233       4.08403233      26.98153850 Al_fcc
Al       4.08403233       6.04096767       6.04096767      26.98153850 Al_fcc
Al       4.01596767       8.13403233       8.13403233      26.98153850 Al_fcc
Al       6.10903233       1.99096767       4.01596767      26.98153850 Al_fcc
Al       6.04096767       4.08403233       6.10903233      26.98153850 Al_fcc
Al       6.10903233       6.04096767       8.06596767      26.98153850 Al_fcc
Al       6.04096767       8.13403233      10.15903233      26.98153850 Al_fcc
Al       8.13403233       1.99096767       6.04096767      26.98153850 Al_fcc
Al       8.06596767       4.08403233       8.13403233      26.98153850 Al_fcc
Al       8.13403233       6.04096767      10.09096767      26.98153850 Al_fcc
Al       8.06596767       8.13403233      12.18403233      26.98153850 Al_fcc
32
Lattice="0.0 8.099999999999998 8.099999999999998 8.099999999999998 0.0 8.099999999999998 4.049999999999999 4.049999999999999 0.0" Properties=species:S:1:pos:R:3:masses:R:1:v_ase_atom_type:S:1 v_ase_phonon_mode="_JSON {\"qpoint\": [0.5, 0.0, 0.0], \"band\": 3, \"frequency_thz\": 7.918781883704656, \"amplitude\": 2.0, \"phase_degrees\": 345.0, \"dimension\": [[4, 0, 0], [0, 4, 0], [0, 0, 2]], \"coordinates_unwrapped\": true}" pbc="T T T"
Al       0.03795813      -0.03795813      -0.03795813      26.98153850 Al_fcc
Al      -0.03795813       2.06295813       2.06295813      26.98153850 Al_fcc
Al       0.03795813       4.01204187       4.01204187      26.98153850 Al_fcc
Al      -0.03795813       6.11295813       6.11295813      26.98153850 Al_fcc
Al       2.06295813      -0.03795813       1.98704187      26.98153850 Al_fcc
Al       1.98704187       2.06295813       4.08795813      26.98153850 Al_fcc
Al       2.06295813       4.01204187       6.03704187      26.98153850 Al_fcc
Al       1.98704187       6.11295813       8.13795813      26.98153850 Al_fcc
Al       4.08795813      -0.03795813       4.01204187      26.98153850 Al_fcc
Al       4.01204187       2.06295813       6.11295813      26.98153850 Al_fcc
Al       4.08795813       4.01204187       8.06204187      26.98153850 Al_fcc
Al       4.01204187       6.11295813      10.16295813      26.98153850 Al_fcc
Al       6.11295813      -0.03795813       6.03704187      26.98153850 Al_fcc
Al       6.03704187       2.06295813       8.13795813      26.98153850 Al_fcc
Al       6.11295813       4.01204187      10.08704187      26.98153850 Al_fcc
Al       6.03704187       6.11295813      12.18795813      26.98153850 Al_fcc
Al       2.06295813       1.98704187      -0.03795813      26.98153850 Al_fcc
Al       1.98704187       4.08795813       2.06295813      26.98153850 Al_fcc
Al       2.06295813       6.03704187       4.01204187      26.98153850 Al_fcc
Al       1.98704187       8.13795813       6.11295813      26.98153850 Al_fcc
Al       4.08795813       1.98704187       1.98704187      26.98153850 Al_fcc
Al       4.01204187       4.08795813       4.08795813      26.98153850 Al_fcc
Al       4.08795813       6.03704187       6.03704187      26.98153850 Al_fcc
Al       4.01204187       8.13795813       8.13795813      26.98153850 Al_fcc
Al       6.11295813       1.98704187       4.01204187      26.98153850 Al_fcc
Al       6.03704187       4.08795813       6.11295813      26.98153850 Al_fcc
Al       6.11295813       6.03704187       8.06204187      26.98153850 Al_fcc
Al       6.03704187       8.13795813      10.16295813      26.98153850 Al_fcc
Al       8.13795813       1.98704187       6.03704187      26.98153850 Al_fcc
Al       8.06204187       4.08795813       8.13795813      26.98153850 Al_fcc
Al       8.13795813       6.03704187      10.08704187      26.98153850 Al_fcc
Al       8.06204187       8.13795813      12.18795813      26.98153850 Al_fcc
