16
Lattice="0.0 5.64 5.64 5.64 0.0 5.64 5.64 5.64 0.0" Properties=species:S:1:pos:R:3:masses:R:1:v_ase_atom_type:S:1 v_ase_phonon_displacement="_JSON {\"index\": 0, \"count\": 2, \"distance_angstrom\": 0.01, \"supercell_matrix\": [[2, 0, 0], [0, 2, 0], [0, 0, 2]], \"forces_required\": true}" pbc="T T T"
Na       5.64000000       5.64707107       0.00707107      22.98976928 Na_site
Na       5.64000000       2.82000000       8.46000000      22.98976928 Na_site
Na       2.82000000       5.64000000       8.46000000      22.98976928 Na_site
Na       2.82000000       2.82000000       5.64000000      22.98976928 Na_site
Na       2.82000000       8.46000000       5.64000000      22.98976928 Na_site
Na       8.46000000       5.64000000       8.46000000      22.98976928 Na_site
Na       5.64000000       8.46000000       8.46000000      22.98976928 Na_site
Na       5.64000000       5.64000000       5.64000000      22.98976928 Na_site
Cl       2.82000000       2.82000000       2.82000000      35.45000000 Cl_site
Cl       2.82000000       5.64000000       5.64000000      35.45000000 Cl_site
Cl       5.64000000       2.82000000       5.64000000      35.45000000 Cl_site
Cl       5.64000000       5.64000000       8.46000000      35.45000000 Cl_site
Cl       5.64000000       5.64000000       2.82000000      35.45000000 Cl_site
Cl       5.64000000       8.46000000       5.64000000      35.45000000 Cl_site
Cl       8.46000000       5.64000000       5.64000000      35.45000000 Cl_site
Cl       8.46000000       8.46000000       8.46000000      35.45000000 Cl_site
16
Lattice="0.0 5.64 5.64 5.64 0.0 5.64 5.64 5.64 0.0" Properties=species:S:1:pos:R:3:masses:R:1:v_ase_atom_type:S:1 v_ase_phonon_displacement="_JSON {\"index\": 1, \"count\": 2, \"distance_angstrom\": 0.01, \"supercell_matrix\": [[2, 0, 0], [0, 2, 0], [0, 0, 2]], \"forces_required\": true}" pbc="T T T"
Na       0.00000000       0.00000000       0.00000000      22.98976928 Na_site
Na       5.64000000       2.82000000       8.46000000      22.98976928 Na_site
Na       2.82000000       5.64000000       8.46000000      22.98976928 Na_site
Na       2.82000000       2.82000000       5.64000000      22.98976928 Na_site
Na       2.82000000       8.46000000       5.64000000      22.98976928 Na_site
Na       8.46000000       5.64000000       8.46000000      22.98976928 Na_site
Na       5.64000000       8.46000000       8.46000000      22.98976928 Na_site
Na       5.64000000       5.64000000       5.64000000      22.98976928 Na_site
Cl       2.82000000       2.82707107       2.82707107      35.45000000 Cl_site
Cl       2.82000000       5.64000000       5.64000000      35.45000000 Cl_site
Cl       5.64000000       2.82000000       5.64000000      35.45000000 Cl_site
Cl       5.64000000       5.64000000       8.46000000      35.45000000 Cl_site
Cl       5.64000000       5.64000000       2.82000000      35.45000000 Cl_site
Cl       5.64000000       8.46000000       5.64000000      35.45000000 Cl_site
Cl       8.46000000       5.64000000       5.64000000      35.45000000 Cl_site
Cl       8.46000000       8.46000000       8.46000000      35.45000000 Cl_site
