Cu  O
   1.00000000000000
     6.7621490218237001    0.0000000000000000    0.0000000000000000
    -0.9660212888320000    6.6927918138004996    0.0000000000000000
     0.0000000000000000    0.0000000000000000   26.4408387699999992
   Cu   O
    37     4
Selective dynamics
Direct
  0.1908238770751751  0.1557244912132063  0.0000000000000000   F   F   F
  0.3574905438654810  0.3223911575362095  0.0789250487911062   F   F   F
  0.1468366133280882  0.3635448314120586  0.1573878905503014   T   T   T
  0.3158238764183920  0.5307244911870299  0.0000000000000000   F   F   F
  0.9471900028151468  0.3980259356504991  0.2397353372933535   T   T   T
  0.2324905430030384  0.9473911584886778  0.0789250487911062   F   F   F
  0.8974525508379038  0.6121272341722741  0.1613055191059857   T   T   T
  0.7744553737921817  0.2401581573813961  0.1586126364754126   T   T   T
  0.3279515201109294  0.3270398433808460  0.3166217397204857   T   T   T
  0.3051454483056131  0.7349020268639027  0.3168885340443660   T   T   T
  0.8165922061425783  0.5311135292835149  0.3213479947764193   T   T   T
  0.6124993319284182  0.0425056168683911  0.3166139837591788   T   T   T
  0.1074905436598215  0.5723911585148542  0.0789250487911062   F   F   F
  0.4824905432086979  0.6973911575100331  0.0789250487911062   F   F   F
  0.0243917867344292  0.9856465314602150  0.1578946113876547   T   T   T
  0.0609507569661675  0.7753244090779503  0.2404973444442436   T   T   T
  0.4373953645089844  0.9086622915703587  0.2342765474337091   T   T   T
  0.5658238768374986  0.2807244917025287  0.0000000000000000   F   F   F
  0.4408238772404331  0.9057244911608535  0.0000000000000000   F   F   F
  0.0658238776915567  0.7807244921656746  0.0000000000000000   F   F   F
  0.5254349313894345  0.4892048636378142  0.1585855437704836   T   T   T
  0.9408238765998220  0.4057244921918510  0.0000000000000000   F   F   F
  0.5711259010906724  0.2855583470988630  0.2397211462478824   T   T   T
  0.8574905429710213  0.8223911579993555  0.0789250487911062   F   F   F
  0.6836870146736052  0.6615011558987786  0.2396877923514258   T   T   T
  0.8158238772566051  0.0307244922180274  0.0000000000000000   F   F   F
  0.8159425993980922  0.0288095822485100  0.2343067363942872   T   T   T
  0.2708811627260850  0.7391159245384715  0.1579129023878917   T   T   T
  0.7324905436278044  0.4473911580255319  0.0789250487911062   F   F   F
  0.6908238776595397  0.6557244916763523  0.0000000000000000   F   F   F
  0.3144119553524379  0.5303103302134266  0.2343090924902217   T   T   T
  0.6074905442845875  0.0723911580517083  0.0789250487911062   F   F   F
  0.1942896363097191  0.1516727108681902  0.2342823213260354   T   T   T
  0.4023823960457327  0.1171031101915277  0.1576269057332681   T   T   T
  0.0203483037958359  0.0197184415182292  0.3169009715981980   T   T   T
  0.9824905440469109  0.1973911585410306  0.0789250487911062   F   F   F
  0.6488565293605120  0.8615774114734545  0.1573678135670911   T   T   T
  0.0318818695063400  0.7464394697820353  0.3236356930431145   T   T   T
  0.0512309333604302  0.2962950088060733  0.3131640675599848   T   T   T
  0.6012994437205831  0.3158572970599136  0.3231818855726356   T   T   T
  0.5817119887882103  0.7657988308315121  0.3130993021386119   T   T   T

  0.00000000E+00  0.00000000E+00  0.00000000E+00
  0.00000000E+00  0.00000000E+00  0.00000000E+00
  0.00000000E+00  0.00000000E+00  0.00000000E+00
  0.00000000E+00  0.00000000E+00  0.00000000E+00
  0.00000000E+00  0.00000000E+00  0.00000000E+00
  0.00000000E+00  0.00000000E+00  0.00000000E+00
  0.00000000E+00  0.00000000E+00  0.00000000E+00
  0.00000000E+00  0.00000000E+00  0.00000000E+00
  0.00000000E+00  0.00000000E+00  0.00000000E+00
  0.00000000E+00  0.00000000E+00  0.00000000E+00
  0.00000000E+00  0.00000000E+00  0.00000000E+00
  0.00000000E+00  0.00000000E+00  0.00000000E+00
  0.00000000E+00  0.00000000E+00  0.00000000E+00
  0.00000000E+00  0.00000000E+00  0.00000000E+00
  0.00000000E+00  0.00000000E+00  0.00000000E+00
  0.00000000E+00  0.00000000E+00  0.00000000E+00
  0.00000000E+00  0.00000000E+00  0.00000000E+00
  0.00000000E+00  0.00000000E+00  0.00000000E+00
  0.00000000E+00  0.00000000E+00  0.00000000E+00
  0.00000000E+00  0.00000000E+00  0.00000000E+00
  0.00000000E+00  0.00000000E+00  0.00000000E+00
  0.00000000E+00  0.00000000E+00  0.00000000E+00
  0.00000000E+00  0.00000000E+00  0.00000000E+00
  0.00000000E+00  0.00000000E+00  0.00000000E+00
  0.00000000E+00  0.00000000E+00  0.00000000E+00
  0.00000000E+00  0.00000000E+00  0.00000000E+00
  0.00000000E+00  0.00000000E+00  0.00000000E+00
  0.00000000E+00  0.00000000E+00  0.00000000E+00
  0.00000000E+00  0.00000000E+00  0.00000000E+00
  0.00000000E+00  0.00000000E+00  0.00000000E+00
  0.00000000E+00  0.00000000E+00  0.00000000E+00
  0.00000000E+00  0.00000000E+00  0.00000000E+00
  0.00000000E+00  0.00000000E+00  0.00000000E+00
  0.00000000E+00  0.00000000E+00  0.00000000E+00
  0.00000000E+00  0.00000000E+00  0.00000000E+00
  0.00000000E+00  0.00000000E+00  0.00000000E+00
  0.00000000E+00  0.00000000E+00  0.00000000E+00
  0.00000000E+00  0.00000000E+00  0.00000000E+00
  0.00000000E+00  0.00000000E+00  0.00000000E+00
  0.00000000E+00  0.00000000E+00  0.00000000E+00
  0.00000000E+00  0.00000000E+00  0.00000000E+00
