41
Lattice="6.7621490218237 0.0 0.0 -0.966021288832 6.6927918138005 0.0 0.0 0.0 26.44083877" Properties=species:S:1:pos:R:3:move_mask:L:1:momenta:R:3:v_ase_atom_type:S:1 readme_scene=cu5o4_view_appearance purpose="View-mode index label split and nonstructural appearance editing" pbc="T T T"
Cu       1.13994632       1.04223160       0.00000000  F       0.00000000       0.00000000       0.00000000 Cu
Cu       2.10596761       2.15769690       2.08684449  F       0.00000000       0.00000000       0.00000000 Cu
Cu       0.64173901       2.43312987       4.16146784  T       0.00000000       0.00000000       0.00000000 Cu
Cu       1.62295696       3.55202853       0.00000000  F       0.00000000       0.00000000       0.00000000 Cu
Cu       6.02053842       2.66390472       6.33880340  T       0.00000000       0.00000000       0.00000000 Cu
Cu       0.65693567       6.34069179       2.08684449  F       0.00000000       0.00000000       0.00000000 Cu
Cu       5.47737995       4.09684014       4.26505322  T       0.00000000       0.00000000       0.00000000 Cu
Cu       5.00498476       1.60732855       4.19385115  T       0.00000000       0.00000000       0.00000000 Cu
Cu       1.90172960       2.18880959       8.37174437  T       0.00000000       0.00000000       0.00000000 Cu
Cu       1.35350799       4.91854627       8.37879864  T       0.00000000       0.00000000       0.00000000 Cu
Cu       5.00885121       3.55463228       8.49671052  T       0.00000000       0.00000000       0.00000000 Cu
Cu       4.10075043       0.28448124       8.37153930  T       0.00000000       0.00000000       0.00000000 Cu
Cu       0.17392503       3.83089486       2.08684449  F       0.00000000       0.00000000       0.00000000 Cu
Cu       2.58897825       4.66749383       2.08684449  F       0.00000000       0.00000000       0.00000000 Cu
Cu      -0.78721464       6.59672704       4.17486596  T       0.00000000       0.00000000       0.00000000 Cu
Cu      -0.33682178       5.18908486       6.35895151  T       0.00000000       0.00000000       0.00000000 Cu
Cu       2.07994552       6.08148755       6.19446842  T       0.00000000       0.00000000       0.00000000 Cu
Cu       3.55499954       1.87883058       0.00000000  F       0.00000000       0.00000000       0.00000000 Cu
Cu       2.10596761       6.06182546       0.00000000  F       0.00000000       0.00000000       0.00000000 Cu
Cu      -0.30908561       5.22522649       0.00000000  F       0.00000000       0.00000000       0.00000000 Cu
Cu       3.08048699       3.27414631       4.19313479  T       0.00000000       0.00000000       0.00000000 Cu
Cu       5.97005276       2.71542956       0.00000000  F       0.00000000       0.00000000       0.00000000 Cu
Cu       3.58618301       1.91118257       6.33842818  T       0.00000000       0.00000000       0.00000000 Cu
Cu       5.00403147       5.50409281       2.08684449  F       0.00000000       0.00000000       0.00000000 Cu
Cu       3.98416928       4.42728952       6.33754627  T       0.00000000       0.00000000       0.00000000 Cu
Cu       5.48704212       0.20563263       0.00000000  F       0.00000000       0.00000000       0.00000000 Cu
Cu       5.48969478       0.19281654       6.19526664  T       0.00000000       0.00000000       0.00000000 Cu
Cu       1.11773707       4.94674901       4.17534959  T       0.00000000       0.00000000       0.00000000 Cu
Cu       4.52102083       2.99429588       2.08684449  F       0.00000000       0.00000000       0.00000000 Cu
Cu       4.03801019       4.38862751       0.00000000  F       0.00000000       0.00000000       0.00000000 Cu
Cu       1.61380943       3.54925664       6.19532894  T       0.00000000       0.00000000       0.00000000 Cu
Cu       4.03801019       0.48449895       2.08684449  F       0.00000000       0.00000000       0.00000000 Cu
Cu       1.16729641       1.01511388       6.19462108  T       0.00000000       0.00000000       0.00000000 Cu
Cu       2.60784563       0.78374674       4.16778760  T       0.00000000       0.00000000       0.00000000 Cu
Cu       0.11854983       0.13197142       8.37912750  T       0.00000000       0.00000000       0.00000000 Cu
Cu       6.45306341       1.32109793       2.08684449  F       0.00000000       0.00000000       0.00000000 Cu
Cu       3.55536242       5.76635825       4.16093699  T       0.00000000       0.00000000       0.00000000 Cu
O       -0.50548647       4.99576397       8.55719918  T       0.00000000       0.00000000       0.00000000 O_surface_oxide
O        0.06020392       1.98304081       8.28032062  T       0.00000000       0.00000000       0.00000000 O_surface_oxide
O        3.76095157       2.11396713       8.54520013  T       0.00000000       0.00000000       0.00000000 O_surface_oxide
O        3.19384518       5.12533215       8.27860817  T       0.00000000       0.00000000       0.00000000 O_surface_oxide
