72
Lattice="9.01 0.0 0.0 0.0 9.01 0.0 0.0 0.0 9.477" Properties=species:S:1:pos:R:3:spacegroup_kinds:I:1:v_ase_atom_type:S:1 spacegroup=136 unit_cell=conventional model="Idealized rutile IrO2, a=4.505 A, c=3.159 A, u=0.305; unrelaxed." label_definition="Ir_A and Ir_B label the two symmetry-related Ir basis sites for visualization; no charge assignment." pbc="T T T"
Ir       0.00000000       0.00000000       0.00000000        0 Ir_A
Ir       2.25250000       2.25250000       1.57950000        0 Ir_B
O        1.37402500       1.37402500       0.00000000        1 O 
O        3.13097500       3.13097500       0.00000000        1 O 
O        0.87847500       3.62652500       1.57950000        1 O 
O        3.62652500       0.87847500       1.57950000        1 O 
Ir       0.00000000       0.00000000       3.15900000        0 Ir_A
Ir       2.25250000       2.25250000       4.73850000        0 Ir_B
O        1.37402500       1.37402500       3.15900000        1 O 
O        3.13097500       3.13097500       3.15900000        1 O 
O        0.87847500       3.62652500       4.73850000        1 O 
O        3.62652500       0.87847500       4.73850000        1 O 
Ir       0.00000000       0.00000000       6.31800000        0 Ir_A
Ir       2.25250000       2.25250000       7.89750000        0 Ir_B
O        1.37402500       1.37402500       6.31800000        1 O 
O        3.13097500       3.13097500       6.31800000        1 O 
O        0.87847500       3.62652500       7.89750000        1 O 
O        3.62652500       0.87847500       7.89750000        1 O 
Ir       0.00000000       4.50500000       0.00000000        0 Ir_A
Ir       2.25250000       6.75750000       1.57950000        0 Ir_B
O        1.37402500       5.87902500       0.00000000        1 O 
O        3.13097500       7.63597500       0.00000000        1 O 
O        0.87847500       8.13152500       1.57950000        1 O 
O        3.62652500       5.38347500       1.57950000        1 O 
Ir       0.00000000       4.50500000       3.15900000        0 Ir_A
Ir       2.25250000       6.75750000       4.73850000        0 Ir_B
O        1.37402500       5.87902500       3.15900000        1 O 
O        3.13097500       7.63597500       3.15900000        1 O 
O        0.87847500       8.13152500       4.73850000        1 O 
O        3.62652500       5.38347500       4.73850000        1 O 
Ir       0.00000000       4.50500000       6.31800000        0 Ir_A
Ir       2.25250000       6.75750000       7.89750000        0 Ir_B
O        1.37402500       5.87902500       6.31800000        1 O 
O        3.13097500       7.63597500       6.31800000        1 O 
O        0.87847500       8.13152500       7.89750000        1 O 
O        3.62652500       5.38347500       7.89750000        1 O 
Ir       4.50500000       0.00000000       0.00000000        0 Ir_A
Ir       6.75750000       2.25250000       1.57950000        0 Ir_B
O        5.87902500       1.37402500       0.00000000        1 O 
O        7.63597500       3.13097500       0.00000000        1 O 
O        5.38347500       3.62652500       1.57950000        1 O 
O        8.13152500       0.87847500       1.57950000        1 O 
Ir       4.50500000       0.00000000       3.15900000        0 Ir_A
Ir       6.75750000       2.25250000       4.73850000        0 Ir_B
O        5.87902500       1.37402500       3.15900000        1 O 
O        7.63597500       3.13097500       3.15900000        1 O 
O        5.38347500       3.62652500       4.73850000        1 O 
O        8.13152500       0.87847500       4.73850000        1 O 
Ir       4.50500000       0.00000000       6.31800000        0 Ir_A
Ir       6.75750000       2.25250000       7.89750000        0 Ir_B
O        5.87902500       1.37402500       6.31800000        1 O 
O        7.63597500       3.13097500       6.31800000        1 O 
O        5.38347500       3.62652500       7.89750000        1 O 
O        8.13152500       0.87847500       7.89750000        1 O 
Ir       4.50500000       4.50500000       0.00000000        0 Ir_A
Ir       6.75750000       6.75750000       1.57950000        0 Ir_B
O        5.87902500       5.87902500       0.00000000        1 O 
O        7.63597500       7.63597500       0.00000000        1 O 
O        5.38347500       8.13152500       1.57950000        1 O 
O        8.13152500       5.38347500       1.57950000        1 O 
Ir       4.50500000       4.50500000       3.15900000        0 Ir_A
Ir       6.75750000       6.75750000       4.73850000        0 Ir_B
O        5.87902500       5.87902500       3.15900000        1 O 
O        7.63597500       7.63597500       3.15900000        1 O 
O        5.38347500       8.13152500       4.73850000        1 O 
O        8.13152500       5.38347500       4.73850000        1 O 
Ir       4.50500000       4.50500000       6.31800000        0 Ir_A
Ir       6.75750000       6.75750000       7.89750000        0 Ir_B
O        5.87902500       5.87902500       6.31800000        1 O 
O        7.63597500       7.63597500       6.31800000        1 O 
O        5.38347500       8.13152500       7.89750000        1 O 
O        8.13152500       5.38347500       7.89750000        1 O 
