144
Lattice="19.113096295472378 0.0 0.0 0.0 6.318 0.0 0.0 0.0 21.499712937775875" Properties=species:S:1:pos:R:3:spacegroup_kinds:I:1:v_ase_atom_type:S:1:tags:I:1 spacegroup=136 unit_cell=conventional model="Unrelaxed rutile IrO2 (110) slab cut from the illustrative bulk; four layers, 3x2 in-plane repetition." label_definition="Ir_A and Ir_B label the two symmetry-related Ir basis sites for visualization; no charge assignment." pbc="T T F"
Ir       0.00000000       0.00000000       5.00000000        0 Ir_A        4
Ir       3.18551605       1.57950000       5.00000000        0 Ir_B        4
O        0.00000000       0.00000000       6.94316479        1 O         4
O        3.18551605       0.00000000       6.24235126        1 O         4
O        1.24235126       1.57950000       5.00000000        1 O         4
O        5.12868084       1.57950000       5.00000000        1 O         4
Ir       3.18551605       0.00000000       8.18551605        0 Ir_A        3
Ir       0.00000000       1.57950000       8.18551605        0 Ir_B        3
O        3.18551605       0.00000000      10.12868084        1 O         3
O        0.00000000       0.00000000       9.42786731        1 O         3
O        4.42786731       1.57950000       8.18551605        1 O         3
O        1.94316479       1.57950000       8.18551605        1 O         3
Ir       0.00000000       0.00000000      11.37103210        0 Ir_A        2
Ir       3.18551605       1.57950000      11.37103210        0 Ir_B        2
O        0.00000000       0.00000000      13.31419689        1 O         2
O        3.18551605       0.00000000      12.61338336        1 O         2
O        1.24235126       1.57950000      11.37103210        1 O         2
O        5.12868084       1.57950000      11.37103210        1 O         2
Ir       3.18551605       0.00000000      14.55654815        0 Ir_A        1
Ir       0.00000000       1.57950000      14.55654815        0 Ir_B        1
O        3.18551605       0.00000000      16.49971294        1 O         1
O        0.00000000       0.00000000      15.79889941        1 O         1
O        4.42786731       1.57950000      14.55654815        1 O         1
O        1.94316479       1.57950000      14.55654815        1 O         1
Ir       0.00000000       3.15900000       5.00000000        0 Ir_A        4
Ir       3.18551605       4.73850000       5.00000000        0 Ir_B        4
O        0.00000000       3.15900000       6.94316479        1 O         4
O        3.18551605       3.15900000       6.24235126        1 O         4
O        1.24235126       4.73850000       5.00000000        1 O         4
O        5.12868084       4.73850000       5.00000000        1 O         4
Ir       3.18551605       3.15900000       8.18551605        0 Ir_A        3
Ir       0.00000000       4.73850000       8.18551605        0 Ir_B        3
O        3.18551605       3.15900000      10.12868084        1 O         3
O        0.00000000       3.15900000       9.42786731        1 O         3
O        4.42786731       4.73850000       8.18551605        1 O         3
O        1.94316479       4.73850000       8.18551605        1 O         3
Ir       0.00000000       3.15900000      11.37103210        0 Ir_A        2
Ir       3.18551605       4.73850000      11.37103210        0 Ir_B        2
O        0.00000000       3.15900000      13.31419689        1 O         2
O        3.18551605       3.15900000      12.61338336        1 O         2
O        1.24235126       4.73850000      11.37103210        1 O         2
O        5.12868084       4.73850000      11.37103210        1 O         2
Ir       3.18551605       3.15900000      14.55654815        0 Ir_A        1
Ir       0.00000000       4.73850000      14.55654815        0 Ir_B        1
O        3.18551605       3.15900000      16.49971294        1 O         1
O        0.00000000       3.15900000      15.79889941        1 O         1
O        4.42786731       4.73850000      14.55654815        1 O         1
O        1.94316479       4.73850000      14.55654815        1 O         1
Ir       6.37103210       0.00000000       5.00000000        0 Ir_A        4
Ir       9.55654815       1.57950000       5.00000000        0 Ir_B        4
O        6.37103210       0.00000000       6.94316479        1 O         4
O        9.55654815       0.00000000       6.24235126        1 O         4
O        7.61338336       1.57950000       5.00000000        1 O         4
O       11.49971294       1.57950000       5.00000000        1 O         4
Ir       9.55654815       0.00000000       8.18551605        0 Ir_A        3
Ir       6.37103210       1.57950000       8.18551605        0 Ir_B        3
O        9.55654815       0.00000000      10.12868084        1 O         3
O        6.37103210       0.00000000       9.42786731        1 O         3
O       10.79889941       1.57950000       8.18551605        1 O         3
O        8.31419689       1.57950000       8.18551605        1 O         3
Ir       6.37103210       0.00000000      11.37103210        0 Ir_A        2
Ir       9.55654815       1.57950000      11.37103210        0 Ir_B        2
O        6.37103210       0.00000000      13.31419689        1 O         2
O        9.55654815       0.00000000      12.61338336        1 O         2
O        7.61338336       1.57950000      11.37103210        1 O         2
O       11.49971294       1.57950000      11.37103210        1 O         2
Ir       9.55654815       0.00000000      14.55654815        0 Ir_A        1
Ir       6.37103210       1.57950000      14.55654815        0 Ir_B        1
O        9.55654815       0.00000000      16.49971294        1 O         1
O        6.37103210       0.00000000      15.79889941        1 O         1
O       10.79889941       1.57950000      14.55654815        1 O         1
O        8.31419689       1.57950000      14.55654815        1 O         1
Ir       6.37103210       3.15900000       5.00000000        0 Ir_A        4
Ir       9.55654815       4.73850000       5.00000000        0 Ir_B        4
O        6.37103210       3.15900000       6.94316479        1 O         4
O        9.55654815       3.15900000       6.24235126        1 O         4
O        7.61338336       4.73850000       5.00000000        1 O         4
O       11.49971294       4.73850000       5.00000000        1 O         4
Ir       9.55654815       3.15900000       8.18551605        0 Ir_A        3
Ir       6.37103210       4.73850000       8.18551605        0 Ir_B        3
O        9.55654815       3.15900000      10.12868084        1 O         3
O        6.37103210       3.15900000       9.42786731        1 O         3
O       10.79889941       4.73850000       8.18551605        1 O         3
O        8.31419689       4.73850000       8.18551605        1 O         3
Ir       6.37103210       3.15900000      11.37103210        0 Ir_A        2
Ir       9.55654815       4.73850000      11.37103210        0 Ir_B        2
O        6.37103210       3.15900000      13.31419689        1 O         2
O        9.55654815       3.15900000      12.61338336        1 O         2
O        7.61338336       4.73850000      11.37103210        1 O         2
O       11.49971294       4.73850000      11.37103210        1 O         2
Ir       9.55654815       3.15900000      14.55654815        0 Ir_A        1
Ir       6.37103210       4.73850000      14.55654815        0 Ir_B        1
O        9.55654815       3.15900000      16.49971294        1 O         1
O        6.37103210       3.15900000      15.79889941        1 O         1
O       10.79889941       4.73850000      14.55654815        1 O         1
O        8.31419689       4.73850000      14.55654815        1 O         1
Ir      12.74206420       0.00000000       5.00000000        0 Ir_A        4
Ir      15.92758025       1.57950000       5.00000000        0 Ir_B        4
O       12.74206420       0.00000000       6.94316479        1 O         4
O       15.92758025       0.00000000       6.24235126        1 O         4
O       13.98441546       1.57950000       5.00000000        1 O         4
O       17.87074504       1.57950000       5.00000000        1 O         4
Ir      15.92758025       0.00000000       8.18551605        0 Ir_A        3
Ir      12.74206420       1.57950000       8.18551605        0 Ir_B        3
O       15.92758025       0.00000000      10.12868084        1 O         3
O       12.74206420       0.00000000       9.42786731        1 O         3
O       17.16993151       1.57950000       8.18551605        1 O         3
O       14.68522899       1.57950000       8.18551605        1 O         3
Ir      12.74206420       0.00000000      11.37103210        0 Ir_A        2
Ir      15.92758025       1.57950000      11.37103210        0 Ir_B        2
O       12.74206420       0.00000000      13.31419689        1 O         2
O       15.92758025       0.00000000      12.61338336        1 O         2
O       13.98441546       1.57950000      11.37103210        1 O         2
O       17.87074504       1.57950000      11.37103210        1 O         2
Ir      15.92758025       0.00000000      14.55654815        0 Ir_A        1
Ir      12.74206420       1.57950000      14.55654815        0 Ir_B        1
O       15.92758025       0.00000000      16.49971294        1 O         1
O       12.74206420       0.00000000      15.79889941        1 O         1
O       17.16993151       1.57950000      14.55654815        1 O         1
O       14.68522899       1.57950000      14.55654815        1 O         1
Ir      12.74206420       3.15900000       5.00000000        0 Ir_A        4
Ir      15.92758025       4.73850000       5.00000000        0 Ir_B        4
O       12.74206420       3.15900000       6.94316479        1 O         4
O       15.92758025       3.15900000       6.24235126        1 O         4
O       13.98441546       4.73850000       5.00000000        1 O         4
O       17.87074504       4.73850000       5.00000000        1 O         4
Ir      15.92758025       3.15900000       8.18551605        0 Ir_A        3
Ir      12.74206420       4.73850000       8.18551605        0 Ir_B        3
O       15.92758025       3.15900000      10.12868084        1 O         3
O       12.74206420       3.15900000       9.42786731        1 O         3
O       17.16993151       4.73850000       8.18551605        1 O         3
O       14.68522899       4.73850000       8.18551605        1 O         3
Ir      12.74206420       3.15900000      11.37103210        0 Ir_A        2
Ir      15.92758025       4.73850000      11.37103210        0 Ir_B        2
O       12.74206420       3.15900000      13.31419689        1 O         2
O       15.92758025       3.15900000      12.61338336        1 O         2
O       13.98441546       4.73850000      11.37103210        1 O         2
O       17.87074504       4.73850000      11.37103210        1 O         2
Ir      15.92758025       3.15900000      14.55654815        0 Ir_A        1
Ir      12.74206420       4.73850000      14.55654815        0 Ir_B        1
O       15.92758025       3.15900000      16.49971294        1 O         1
O       12.74206420       3.15900000      15.79889941        1 O         1
O       17.16993151       4.73850000      14.55654815        1 O         1
O       14.68522899       4.73850000      14.55654815        1 O         1
