7
Properties=species:S:1:pos:R:3 model="Ideal NbO6 coordination fragment, Nb-O=2 A; unrelaxed, not a free molecule or charge assignment." pbc="F F F"
Nb       0.00000000       0.00000000       0.00000000
O        2.00000000       0.00000000       0.00000000
O       -2.00000000       0.00000000       0.00000000
O        0.00000000       2.00000000       0.00000000
O        0.00000000      -2.00000000       0.00000000
O        0.00000000       0.00000000       2.00000000
O        0.00000000       0.00000000      -2.00000000
